 # Version information for this restart file 
 # current date 2023-03-09 19:27:00.064
 # current working dir /hkfs/home/project/hk-project-liorde/st_ac127777/mp0mp0/frame0
 # Program compiled at                              Mon Dec 13 13:31:49 CET 2021
 # Program compiled on                                       hkn1993.localdomain
 # Program compiled for                                Linux-x86-64-intel+plumed
 # Source code revision number                                       git:310b7ab
 &GLOBAL
   PRINT_LEVEL  MEDIUM
   PROJECT_NAME mp0mp0_opt
   RUN_TYPE  GEO_OPT
 &END GLOBAL
 &MOTION
   &GEO_OPT
     OPTIMIZER  LBFGS
     MAX_DR     3.0000000000000001E-03
     MAX_FORCE     4.4999999999999999E-04
     RMS_DR     1.5000000000000000E-03
     RMS_FORCE     2.9999999999999997E-04
     STEP_START_VAL  49
   &END GEO_OPT
   &CONSTRAINT
     &FIXED_ATOMS
       COMPONENTS_TO_FIX  XYZ
       LIST  23..352
     &END FIXED_ATOMS
   &END CONSTRAINT
   &PRINT
     &FORCES  SILENT
       FILENAME geom_opt_forces
       UNIT N
       FORMAT  XMOL
     &END FORCES
     &RESTART  LOW
       ADD_LAST  NUMERIC
       FILENAME MOTION_RESTART
     &END RESTART
   &END PRINT
 &END MOTION
 &FORCE_EVAL
   METHOD  QS
   &DFT
     BASIS_SET_FILE_NAME ../BASIS_MOLOPT_UZH
     POTENTIAL_FILE_NAME ../POTENTIAL_UZH
     WFN_RESTART_FILE_NAME mp0mp0_opt-SCF_RESTART.wfn
     CHARGE  0
     &SCF
       MAX_SCF  300
       EPS_SCF     1.0000000000000001E-05
       SCF_GUESS  RESTART
       &OT  T
         MINIMIZER  CG
       &END OT
       &MIXING  T
         ALPHA     4.0000000000000002E-01
       &END MIXING
       &PRINT
         &RESTART  LOW
           ADD_LAST  NUMERIC
           FILENAME SCF_RESTART
         &END RESTART
       &END PRINT
     &END SCF
     &QS
       EPS_DEFAULT     9.9999999999999998E-13
       METHOD  GPW
     &END QS
     &MGRID
       NGRIDS  5
       CUTOFF     5.5000000000000000E+02
       REL_CUTOFF     8.0000000000000000E+01
     &END MGRID
     &XC
       DENSITY_CUTOFF     1.0000000000000000E-10
       GRADIENT_CUTOFF     1.0000000000000000E-10
       TAU_CUTOFF     1.0000000000000000E-10
       &XC_FUNCTIONAL  NO_SHORTCUT
         &PBE  T
         &END PBE
       &END XC_FUNCTIONAL
       &VDW_POTENTIAL
         POTENTIAL_TYPE  PAIR_POTENTIAL
         &PAIR_POTENTIAL
           TYPE  DFTD3
           PARAMETER_FILE_NAME ../dftd3.dat
           REFERENCE_FUNCTIONAL PBE
           CALCULATE_C9_TERM  T
           REFERENCE_C9_TERM  T
         &END PAIR_POTENTIAL
       &END VDW_POTENTIAL
     &END XC
     &POISSON
       POISSON_SOLVER  PERIODIC
       PERIODIC  XYZ
     &END POISSON
   &END DFT
   &SUBSYS
     &CELL
       A     1.5999999999999998E+01    0.0000000000000000E+00    0.0000000000000000E+00
       B     0.0000000000000000E+00    1.5999999999999998E+01    0.0000000000000000E+00
       C     0.0000000000000000E+00    0.0000000000000000E+00    1.5999999999999998E+01
       PERIODIC  XYZ
       MULTIPLE_UNIT_CELL  1 1 1
       SYMMETRY  CUBIC
     &END CELL
     &COORD
CG331    6.3223044725074962E+00    8.7017365829866815E+00    6.2380661361641048E+00
OG303    6.6994517411183674E+00    8.1579111252401901E+00    7.5400551084525853E+00
PG0    6.4504358296386144E+00    9.0824520706358491E+00    8.8815982168362151E+00
OG311    4.9210052395601886E+00    9.4526550083933500E+00    8.7517661394561816E+00
OG311    7.2266707337446503E+00    1.0418014740085578E+01    8.6531261046790817E+00
OG2P1    6.9008698568108313E+00    8.3677166579101474E+00    1.0087361478209431E+01
HGA3    7.2352439328172684E+00    8.9340384222662586E+00    5.6774453057994938E+00
HGA3    5.7102984045647869E+00    9.6011655777979534E+00    6.3432534445805322E+00
HGA3    5.7324460475165857E+00    7.9435738123294923E+00    5.7128841793954592E+00
HGP1    4.3313910363843382E+00    8.6642805797737861E+00    8.8496919409889596E+00
HGP1    6.8273904735514419E+00    1.1045163996741561E+01    7.9268842279059486E+00
CG331    1.0434226098158218E+01    8.2682197896811047E+00    7.8389131549196502E+00
OG303    9.6650348481276254E+00    7.5297520102433673E+00    8.8245064528955837E+00
PG0    9.1131948707446195E+00    6.0459798403363028E+00    8.5855999822054567E+00
OG311    1.0371446414658159E+01    5.1278106525847935E+00    8.2522287640044159E+00
OG311    8.3909135860112212E+00    6.1134699263028507E+00    7.1650374327049926E+00
OG2P1    8.2680233039956086E+00    5.6021267667946466E+00    9.7028424642952338E+00
HGA3    9.8529078144735536E+00    9.1479081350937523E+00    7.5386671583838210E+00
HGA3    1.0661237762238244E+01    7.6542172498680507E+00    6.9620922649532178E+00
HGA3    1.1364685075514442E+01    8.5812254108422525E+00    8.3295501441252675E+00
HGP1    1.0888618945050080E+01    5.1007472340653939E+00    9.1275262006012117E+00
HGP1    7.6651634010398464E+00    6.8104549055205146E+00    7.2674966406552119E+00
OT    2.4864999999999995E+00    6.7999999999999998E+00    1.4219999999999988E+00
HT    2.4234999999999993E+00    7.5919999999999996E+00    8.8899999999999868E-01
HT    3.4214999999999991E+00    6.7050000000000001E+00    1.6019999999999988E+00
OT    4.1874999999999991E+00    8.3780000000000019E+00    1.2709000000000000E+01
HT    3.3454999999999995E+00    8.7759999999999998E+00    1.2930000000000000E+01
HT    4.0374999999999996E+00    7.4370000000000003E+00    1.2798999999999999E+01
OT    1.0717500000000001E+01    9.8960000000000008E+00    4.6319999999999997E+00
HT    1.0179499999999999E+01    9.6080000000000005E+00    3.8939999999999988E+00
HT    1.1354500000000000E+01    9.1920000000000002E+00    4.7539999999999987E+00
OT    2.1154999999999990E+00    3.6809999999999996E+00    1.0369999999999988E+00
HT    2.7604999999999995E+00    3.0569999999999999E+00    7.0399999999999874E-01
HT    2.6384999999999996E+00    4.4119999999999999E+00    1.3689999999999987E+00
OT    1.3774999999999993E+00    3.0639999999999992E+00    1.4453999999999999E+01
HT    2.2214999999999994E+00    2.7589999999999999E+00    1.4786000000000000E+01
HT    7.2949999999999937E-01    2.5730000000000000E+00    1.4959000000000000E+01
OT    1.9684999999999995E+00    1.0513000000000002E+01    9.3989999999999991E+00
HT    1.6954999999999993E+00    1.1288000000000002E+01    9.8899999999999988E+00
HT    2.3244999999999991E+00    1.0861000000000001E+01    8.5809999999999977E+00
OT    6.4564999999999992E+00    3.8430000000000000E+00    1.3374000000000001E+01
HT    6.4074999999999998E+00    3.3069999999999999E+00    1.2582999999999998E+01
HT    6.5194999999999999E+00    4.7420000000000000E+00    1.3052000000000000E+01
OT    1.9334999999999993E+00    2.6699999999999963E-01    5.4369999999999985E+00
HT    1.9564999999999995E+00    1.3199999999999962E-01    6.3839999999999995E+00
HT    1.0144999999999993E+00    1.4299999999999966E-01    5.1989999999999990E+00
OT    1.1134499999999997E+01    5.7179999999999991E+00    5.4209999999999985E+00
HT    1.1788499999999997E+01    5.2289999999999992E+00    4.9229999999999992E+00
HT    1.1227499999999997E+01    5.3979999999999997E+00    6.3179999999999987E+00
OT    2.7984999999999998E+00    9.8289999999999988E+00    2.0959999999999988E+00
HT    2.5764999999999993E+00    9.0270000000000010E+00    2.5689999999999986E+00
HT    2.8624999999999994E+00    9.5570000000000004E+00    1.1799999999999988E+00
OT    9.8444999999999983E+00    1.4045000000000000E+01    7.8429999999999991E+00
HT    9.1675000000000004E+00    1.4079000000000001E+01    8.5199999999999996E+00
HT    1.0610500000000002E+01    1.3683000000000000E+01    8.2889999999999997E+00
OT    4.4294999999999991E+00    1.2667999999999999E+01    9.4779999999999998E+00
HT    4.6395000000000000E+00    1.2081000000000000E+01    1.0205000000000000E+01
HT    5.2805000000000000E+00    1.2973000000000001E+01    9.1619999999999990E+00
OT    2.1214999999999997E+00    1.4769000000000000E+01    4.9719999999999986E+00
HT    2.1484999999999994E+00    1.3901000000000000E+01    4.5699999999999994E+00
HT    3.0294999999999996E+00    1.4947000000000001E+01    5.2189999999999985E+00
OT    1.2325499999999998E+01    9.6470000000000002E+00    2.2939999999999987E+00
HT    1.2170500000000001E+01    8.7040000000000006E+00    2.3469999999999986E+00
HT    1.2229500000000000E+01    9.9570000000000007E+00    3.1949999999999990E+00
OT    8.7334999999999976E+00    4.9569999999999999E+00    1.1339999999999988E+00
HT    9.0344999999999995E+00    5.7209999999999992E+00    6.4199999999999868E-01
HT    8.2134999999999998E+00    4.4560000000000004E+00    5.0599999999999867E-01
OT    1.4715499999999999E+01    5.8850000000000007E+00    1.4894000000000000E+01
HT    1.4119500000000000E+01    5.2430000000000003E+00    1.5279999999999999E+01
HT    1.5365499999999999E+01    5.3589999999999991E+00    1.4427000000000000E+01
OT    9.3914999999999971E+00    5.2079999999999993E+00    1.3187000000000001E+01
HT    9.7314999999999987E+00    5.8620000000000001E+00    1.3798999999999999E+01
HT    8.5105000000000004E+00    5.5149999999999997E+00    1.2972999999999999E+01
OT    1.2309499999999998E+01    3.7519999999999998E+00    3.8339999999999987E+00
HT    1.1681500000000000E+01    3.3310000000000000E+00    3.2479999999999989E+00
HT    1.2881499999999997E+01    3.0409999999999999E+00    4.1239999999999988E+00
OT    5.4004999999999992E+00    6.7690000000000001E+00    2.3409999999999989E+00
HT    6.1104999999999992E+00    6.4780000000000006E+00    2.9149999999999987E+00
HT    5.6954999999999991E+00    6.5389999999999997E+00    1.4599999999999989E+00
OT    6.6934999999999993E+00    1.1454000000000001E+01    4.4699999999999980E+00
HT    7.5904999999999996E+00    1.1267000000000001E+01    4.7469999999999990E+00
HT    6.5254999999999992E+00    1.0831000000000001E+01    3.7629999999999990E+00
OT    8.3949999999999925E-01    2.0299999999999963E-01    8.7259999999999991E+00
HT    6.3549999999999918E-01    1.0859999999999996E+00    8.4179999999999993E+00
HT    1.3824999999999992E+00    3.3799999999999963E-01    9.5019999999999989E+00
OT    1.5307499999999999E+01    3.7889999999999997E+00    1.0905999999999999E+01
HT    1.4526500000000000E+01    3.5829999999999997E+00    1.0391000000000000E+01
HT    1.5601500000000001E+01    4.6350000000000007E+00    1.0568000000000000E+01
OT    9.4394999999999971E+00    1.2606000000000000E+01    5.2389999999999981E+00
HT    9.3375000000000004E+00    1.2671000000000001E+01    6.1879999999999979E+00
HT    9.8524999999999991E+00    1.1754000000000000E+01    5.0999999999999996E+00
OT    6.1244999999999994E+00    1.1379999999999999E+00    5.3179999999999987E+00
HT    6.7734999999999994E+00    1.8349999999999995E+00    5.2189999999999985E+00
HT    5.2814999999999994E+00    1.5769999999999995E+00    5.2059999999999986E+00
OT    4.6904999999999992E+00    1.3319999999999996E+00    1.5340000000000000E+01
HT    4.9624999999999995E+00    5.5799999999999972E-01    1.4847999999999999E+01
HT    5.0764999999999993E+00    2.0669999999999997E+00    1.4863000000000000E+01
OT    3.4694999999999996E+00    1.5208000000000002E+01    2.1369999999999987E+00
HT    2.5154999999999990E+00    1.5237000000000000E+01    2.2109999999999990E+00
HT    3.7344999999999997E+00    1.4505000000000001E+01    2.7299999999999986E+00
OT    1.0199499999999999E+01    1.4195000000000000E+01    2.9969999999999990E+00
HT    1.0565500000000002E+01    1.4744000000000002E+01    3.6899999999999986E+00
HT    1.0019500000000001E+01    1.3357000000000001E+01    3.4239999999999995E+00
OT    5.3514999999999997E+00    5.3099999999999996E+00    5.6699999999999990E+00
HT    5.4524999999999997E+00    4.4930000000000003E+00    5.1819999999999986E+00
HT    6.1555000000000000E+00    5.7970000000000006E+00    5.4899999999999993E+00
OT    6.9114999999999993E+00    1.4297000000000001E+01    4.6289999999999987E+00
HT    6.7104999999999997E+00    1.3372000000000002E+01    4.4879999999999987E+00
HT    7.8464999999999998E+00    1.4311999999999999E+01    4.8309999999999986E+00
OT    4.4554999999999998E+00    4.0990000000000002E+00    2.7659999999999987E+00
HT    4.9494999999999996E+00    4.9090000000000007E+00    2.8929999999999989E+00
HT    5.0674999999999999E+00    3.5129999999999999E+00    2.3209999999999988E+00
OT    4.1144999999999996E+00    4.9960000000000004E+00    1.0334000000000000E+01
HT    4.0504999999999995E+00    4.2640000000000002E+00    9.7199999999999989E+00
HT    3.7214999999999994E+00    5.7339999999999991E+00    9.8689999999999998E+00
OT    1.1766500000000001E+01    1.2447000000000001E+01    1.3096000000000000E+01
HT    1.1358499999999999E+01    1.2168999999999999E+01    1.2276000000000000E+01
HT    1.2692499999999999E+01    1.2556000000000001E+01    1.2879000000000000E+01
OT    1.0661500000000000E+01    7.3980000000000006E+00    2.8079999999999989E+00
HT    1.0364499999999998E+01    6.7220000000000004E+00    3.4179999999999988E+00
HT    1.0123500000000000E+01    7.2690000000000001E+00    2.0269999999999988E+00
OT    6.0065000000000000E+00    1.2899000000000001E+01    1.3929999999999987E+00
HT    6.2234999999999996E+00    1.3601000000000001E+01    7.7999999999999869E-01
HT    6.7734999999999994E+00    1.2327000000000002E+01    1.3849999999999987E+00
OT    7.4149999999999927E-01    1.3988999999999999E+01    1.8209999999999988E+00
HT    8.6149999999999927E-01    1.3381000000000000E+01    2.5509999999999988E+00
HT    7.8499999999999209E-02    1.3575000000000001E+01    1.2699999999999987E+00
OT    1.0181500000000002E+01    1.4543999999999999E+01    1.3805999999999999E+01
HT    9.9014999999999986E+00    1.5057000000000000E+01    1.3048000000000000E+01
HT    1.0779499999999999E+01    1.3888999999999999E+01    1.3444999999999999E+01
OT    7.5874999999999995E+00    1.0330000000000000E+01    1.2563000000000001E+01
HT    8.3614999999999995E+00    9.9880000000000013E+00    1.2116000000000001E+01
HT    7.8434999999999997E+00    1.1206999999999999E+01    1.2848999999999998E+01
OT    2.9864999999999990E+00    7.5230000000000006E+00    9.4539999999999971E+00
HT    2.6244999999999994E+00    8.3830000000000009E+00    9.6659999999999986E+00
HT    2.2404999999999990E+00    6.9260000000000002E+00    9.5129999999999999E+00
OT    2.3414999999999990E+00    1.4165999999999999E+01    1.1141999999999999E+01
HT    2.7254999999999994E+00    1.3740000000000000E+01    1.0375999999999999E+01
HT    1.8294999999999992E+00    1.3478000000000002E+01    1.1566999999999998E+01
OT    9.6234999999999999E+00    8.6559999999999988E+00    1.1285000000000000E+01
HT    8.6805000000000003E+00    8.7809999999999988E+00    1.1174999999999997E+01
HT    9.8774999999999995E+00    8.0960000000000001E+00    1.0552000000000000E+01
OT    9.1414999999999988E+00    1.2509000000000000E+01    6.4799999999999869E-01
HT    9.2905000000000015E+00    1.3151999999999999E+01    1.3409999999999986E+00
HT    9.9824999999999999E+00    1.2443999999999999E+01    1.9499999999999867E-01
OT    1.3599500000000001E+01    9.5410000000000004E+00    1.2119999999999999E+01
HT    1.4083500000000001E+01    9.4409999999999989E+00    1.2939000000000000E+01
HT    1.2737499999999999E+01    9.1659999999999986E+00    1.2302000000000000E+01
OT    1.2767500000000000E+01    3.5479999999999996E+00    6.6459999999999981E+00
HT    1.2704499999999998E+01    3.0189999999999997E+00    5.8499999999999988E+00
HT    1.3365500000000001E+01    4.2590000000000003E+00    6.4139999999999997E+00
OT    5.0394999999999994E+00    8.0399999999999960E-01    8.0909999999999993E+00
HT    4.9774999999999991E+00    6.8399999999999972E-01    7.1429999999999989E+00
HT    5.9594999999999994E+00    1.0159999999999998E+00    8.2469999999999999E+00
OT    1.2076499999999999E+01    1.3180000000000001E+01    8.7969999999999988E+00
HT    1.2664500000000002E+01    1.2734999999999999E+01    8.1879999999999988E+00
HT    1.2561500000000001E+01    1.3956999999999999E+01    9.0739999999999998E+00
OT    1.5921499999999998E+01    1.0280999999999999E+01    1.0473999999999998E+01
HT    1.5468499999999999E+01    1.0625999999999999E+01    9.7039999999999988E+00
HT    1.5225500000000000E+01    9.9029999999999987E+00    1.1011999999999999E+01
OT    6.2504999999999997E+00    1.2053999999999998E+01    7.0559999999999983E+00
HT    6.5284999999999993E+00    1.2928999999999998E+01    7.3279999999999994E+00
HT    6.1114999999999995E+00    1.2129000000000000E+01    6.1119999999999992E+00
OT    1.4382500000000002E+01    5.6150000000000002E+00    5.9939999999999989E+00
HT    1.4796500000000000E+01    5.0750000000000002E+00    5.3209999999999988E+00
HT    1.4690499999999998E+01    6.5029999999999992E+00    5.8129999999999988E+00
OT    6.9534999999999991E+00    6.3159999999999989E+00    1.1984999999999999E+01
HT    6.3895000000000000E+00    7.0790000000000006E+00    1.1857999999999999E+01
HT    7.3204999999999991E+00    6.1419999999999995E+00    1.1119000000000000E+01
OT    4.5934999999999997E+00    1.5053000000000001E+01    5.7639999999999993E+00
HT    5.0994999999999999E+00    1.4523000000000001E+01    5.1479999999999997E+00
HT    5.1354999999999995E+00    1.5087000000000002E+01    6.5519999999999987E+00
OT    6.9234999999999998E+00    1.4487000000000000E+01    8.2929999999999993E+00
HT    6.5614999999999997E+00    1.5350999999999999E+01    8.4919999999999991E+00
HT    7.3564999999999996E+00    1.4216000000000001E+01    9.1019999999999985E+00
OT    1.3171500000000002E+01    2.4429999999999996E+00    3.6199999999999871E-01
HT    1.4049500000000000E+01    2.6139999999999999E+00    7.0299999999999874E-01
HT    1.3183500000000000E+01    1.5159999999999996E+00    1.2399999999999867E-01
OT    8.1064999999999987E+00    2.3879999999999999E+00    3.0489999999999990E+00
HT    8.3114999999999988E+00    2.7119999999999993E+00    3.9259999999999988E+00
HT    8.9164999999999992E+00    2.5069999999999997E+00    2.5539999999999989E+00
OT    1.1498499999999998E+01    1.9189999999999998E+00    1.1278999999999998E+01
HT    1.0593499999999997E+01    1.7009999999999996E+00    1.1501999999999999E+01
HT    1.1928500000000001E+01    2.0499999999999998E+00    1.2123999999999999E+01
OT    1.4547500000000001E+01    9.8460000000000001E+00    1.4613999999999999E+01
HT    1.5197500000000002E+01    1.0545000000000002E+01    1.4542000000000000E+01
HT    1.4142500000000000E+01    9.9830000000000005E+00    1.5469999999999999E+01
OT    9.0604999999999976E+00    1.2051000000000000E+01    1.4494999999999999E+01
HT    9.7855000000000008E+00    1.1429000000000000E+01    1.4555999999999999E+01
HT    9.4734999999999996E+00    1.2876999999999999E+01    1.4244000000000000E+01
OT    1.5040500000000002E+01    8.7029999999999994E+00    2.4799999999999986E+00
HT    1.4200500000000002E+01    9.0499999999999989E+00    2.1789999999999989E+00
HT    1.5421500000000000E+01    8.2909999999999986E+00    1.7039999999999988E+00
OT    5.2794999999999996E+00    6.2479999999999993E+00    1.5366999999999999E+01
HT    5.8834999999999997E+00    6.9130000000000003E+00    1.5039000000000000E+01
HT    5.2864999999999993E+00    5.5649999999999995E+00    1.4696000000000000E+01
OT    1.3927500000000002E+01    1.2929999999999997E+00    4.5309999999999997E+00
HT    1.3836500000000001E+01    8.7499999999999967E-01    3.6739999999999990E+00
HT    1.4323499999999999E+01    6.1999999999999966E-01    5.0839999999999987E+00
OT    2.7014999999999989E+00    9.3950000000000014E+00    5.5219999999999994E+00
HT    3.0754999999999995E+00    8.5280000000000005E+00    5.6759999999999984E+00
HT    1.7864999999999993E+00    9.3120000000000012E+00    5.7879999999999985E+00
OT    1.4032499999999999E+01    6.2880000000000003E+00    1.1633999999999999E+01
HT    1.3908500000000000E+01    6.7499999999999991E+00    1.2462999999999999E+01
HT    1.4022500000000001E+01    5.3610000000000007E+00    1.1872000000000000E+01
OT    8.2904999999999998E+00    3.5789999999999997E+00    5.7389999999999981E+00
HT    8.4394999999999989E+00    4.4530000000000003E+00    6.0999999999999988E+00
HT    8.8354999999999979E+00    3.0019999999999998E+00    6.2739999999999982E+00
OT    7.4615000000000000E+00    5.3990000000000000E+00    3.5629999999999993E+00
HT    7.9044999999999996E+00    5.2670000000000003E+00    2.7249999999999988E+00
HT    7.9215000000000000E+00    4.8209999999999997E+00    4.1719999999999997E+00
OT    1.4481499999999999E+01    1.2776000000000002E+01    1.1468999999999999E+01
HT    1.4226500000000000E+01    1.1997999999999999E+01    1.0973999999999998E+01
HT    1.5098500000000000E+01    1.3233000000000001E+01    1.0896999999999998E+01
OT    6.5854999999999997E+00    1.3209000000000000E+01    1.5875999999999999E+01
HT    6.9924999999999997E+00    1.4018000000000001E+01    1.5564000000000000E+01
HT    7.0534999999999988E+00    1.2511999999999999E+01    1.5417000000000002E+01
OT    8.3464999999999989E+00    1.4043000000000001E+01    1.0536000000000000E+01
HT    7.6304999999999996E+00    1.3988000000000000E+01    1.1167999999999999E+01
HT    8.8545000000000016E+00    1.4805000000000000E+01    1.0814000000000000E+01
OT    6.4414999999999996E+00    8.7620000000000005E+00    1.4776999999999999E+01
HT    6.9964999999999993E+00    8.8739999999999988E+00    1.5548999999999999E+01
HT    6.8924999999999992E+00    9.2460000000000004E+00    1.4084999999999999E+01
OT    6.6704999999999997E+00    2.7820000000000000E+00    1.1032999999999999E+01
HT    5.9954999999999998E+00    3.3849999999999998E+00    1.0723999999999998E+01
HT    7.2524999999999995E+00    2.6679999999999997E+00    1.0282000000000000E+01
OT    3.2634999999999996E+00    5.4789999999999992E+00    1.3048000000000000E+01
HT    3.3324999999999996E+00    5.3699999999999992E+00    1.2100000000000000E+01
HT    2.4594999999999994E+00    5.0170000000000003E+00    1.3285000000000000E+01
OT    1.4986499999999999E+01    1.4004000000000000E+01    7.1119999999999992E+00
HT    1.5669500000000001E+01    1.3510000000000000E+01    6.6589999999999980E+00
HT    1.5106499999999999E+01    1.4906000000000001E+01    6.8159999999999989E+00
OT    4.7974999999999994E+00    1.1450000000000001E+01    1.1963999999999999E+01
HT    5.4944999999999995E+00    1.0805999999999999E+01    1.2091999999999999E+01
HT    3.9884999999999993E+00    1.0955000000000002E+01    1.2087000000000000E+01
OT    1.2384999999999993E+00    1.2391000000000002E+01    3.8629999999999987E+00
HT    5.8449999999999924E-01    1.1956999999999999E+01    4.4099999999999984E+00
HT    1.8344999999999994E+00    1.1690000000000000E+01    3.5979999999999990E+00
OT    1.0053499999999998E+01    1.1773000000000000E+01    1.0995999999999999E+01
HT    1.0013499999999999E+01    1.0873000000000001E+01    1.0670999999999999E+01
HT    9.4465000000000003E+00    1.2257000000000000E+01    1.0436000000000000E+01
OT    6.1164999999999994E+00    2.1519999999999992E+00    1.2239999999999986E+00
HT    6.1024999999999991E+00    1.2009999999999998E+00    1.3269999999999988E+00
HT    6.8274999999999997E+00    2.4449999999999998E+00    1.7929999999999988E+00
OT    1.4249999999999921E-01    8.2909999999999986E+00    1.4747000000000000E+01
HT    7.5549999999999928E-01    8.6649999999999991E+00    1.5379000000000000E+01
HT    1.9149999999999920E-01    7.3460000000000001E+00    1.4895000000000000E+01
OT    1.0584500000000000E+01    2.9619999999999997E+00    1.8159999999999985E+00
HT    1.1288499999999999E+01    2.8099999999999996E+00    1.1849999999999985E+00
HT    1.0089499999999997E+01    3.6949999999999998E+00    1.4519999999999986E+00
OT    1.1717499999999999E+01    1.1767000000000001E+01    5.4799999999999871E-01
HT    1.2299500000000000E+01    1.1965999999999999E+01    1.2809999999999986E+00
HT    1.1615499999999999E+01    1.0815000000000001E+01    5.7499999999999873E-01
OT    4.2254999999999985E+00    1.2604999999999999E+01    3.2439999999999989E+00
HT    4.8884999999999996E+00    1.2755000000000001E+01    2.5709999999999988E+00
HT    4.1064999999999996E+00    1.1655999999999999E+01    3.2569999999999988E+00
OT    2.0144999999999991E+00    5.2089999999999996E+00    8.1250000000000000E+00
HT    1.2234999999999994E+00    4.9969999999999999E+00    8.6199999999999992E+00
HT    2.5564999999999993E+00    4.4229999999999992E+00    8.1879999999999988E+00
OT    1.3084999999999991E+00    1.3986000000000001E+01    7.4959999999999987E+00
HT    1.6664999999999992E+00    1.4464000000000000E+01    6.7479999999999993E+00
HT    1.5404999999999991E+00    1.3072000000000001E+01    7.3299999999999992E+00
OT    1.3177499999999998E+01    1.3272000000000000E+01    2.2799999999999989E+00
HT    1.3113500000000000E+01    1.3221000000000002E+01    3.2329999999999988E+00
HT    1.2539500000000002E+01    1.3940999999999999E+01    2.0319999999999987E+00
OT    2.8964999999999992E+00    1.2782999999999999E+01    1.4847999999999999E+01
HT    1.9534999999999993E+00    1.2699999999999999E+01    1.4709000000000000E+01
HT    3.2314999999999996E+00    1.1891000000000002E+01    1.4757999999999999E+01
OT    1.2623500000000002E+01    3.2460000000000000E+00    1.3382000000000000E+01
HT    1.1790500000000000E+01    3.0069999999999997E+00    1.3789000000000000E+01
HT    1.3267500000000000E+01    3.1610000000000000E+00    1.4084000000000000E+01
OT    1.2350499999999998E+01    1.1045999999999999E+01    6.8229999999999995E+00
HT    1.2404500000000001E+01    1.1347999999999999E+01    5.9159999999999995E+00
HT    1.2269499999999999E+01    1.0094999999999999E+01    6.7549999999999981E+00
OT    1.3153499999999999E+01    3.1039999999999996E+00    9.4179999999999975E+00
HT    1.2739500000000001E+01    3.0080000000000000E+00    8.5599999999999969E+00
HT    1.2513500000000001E+01    2.7489999999999997E+00    1.0035000000000000E+01
OT    3.8094999999999994E+00    3.2129999999999996E+00    8.3819999999999997E+00
HT    4.1614999999999993E+00    2.3230000000000000E+00    8.3699999999999992E+00
HT    4.3724999999999996E+00    3.7009999999999996E+00    7.7799999999999994E+00
OT    4.2354999999999992E+00    1.8549999999999995E+00    1.2239999999999998E+01
HT    4.2214999999999998E+00    2.6450000000000000E+00    1.1697999999999999E+01
HT    4.9464999999999995E+00    1.3279999999999996E+00    1.1875999999999999E+01
OT    1.4598500000000000E+01    1.1481999999999999E+01    8.3399999999999999E+00
HT    1.3763500000000001E+01    1.1423000000000002E+01    7.8759999999999994E+00
HT    1.4889500000000000E+01    1.2382999999999999E+01    8.1989999999999998E+00
OT    9.3464999999999971E+00    2.5899999999999999E+00    1.2963999999999999E+01
HT    9.4544999999999995E+00    3.5400000000000000E+00    1.2917000000000000E+01
HT    8.4194999999999993E+00    2.4640000000000000E+00    1.3167000000000000E+01
OT    1.2638500000000001E+01    8.0990000000000002E+00    5.1659999999999995E+00
HT    1.3542500000000000E+01    7.9489999999999998E+00    5.4449999999999985E+00
HT    1.2240499999999997E+01    7.2290000000000001E+00    5.1679999999999993E+00
OT    1.5724499999999999E+01    1.2404000000000000E+01    1.1259999999999988E+00
HT    1.5380500000000000E+01    1.1783999999999999E+01    4.8299999999999876E-01
HT    1.4948499999999999E+01    1.2733000000000001E+01    1.5809999999999989E+00
OT    1.1214500000000001E+01    1.5135000000000002E+01    5.3929999999999980E+00
HT    1.0729500000000000E+01    1.5206000000000000E+01    6.2149999999999990E+00
HT    1.1681500000000000E+01    1.5967000000000001E+01    5.3169999999999984E+00
OT    8.0284999999999993E+00    1.3919999999999997E+00    8.6609999999999996E+00
HT    8.0704999999999991E+00    4.9699999999999966E-01    8.3239999999999998E+00
HT    8.7744999999999980E+00    1.8359999999999999E+00    8.2579999999999991E+00
OT    6.0114999999999998E+00    1.0046999999999999E+01    2.4319999999999991E+00
HT    6.3294999999999995E+00    1.0100999999999999E+01    1.5309999999999988E+00
HT    5.2014999999999993E+00    9.5410000000000004E+00    2.3709999999999987E+00
OT    4.0385000000000000E+00    9.8910000000000018E+00    1.5193999999999999E+01
HT    3.3884999999999996E+00    9.2069999999999990E+00    1.5354999999999999E+01
HT    4.8314999999999992E+00    9.4149999999999991E+00    1.4949000000000000E+01
OT    1.3314999999999992E+00    9.6470000000000002E+00    1.2705000000000000E+01
HT    1.3304999999999991E+00    8.8849999999999998E+00    1.2125000000000000E+01
HT    7.9449999999999921E-01    9.3810000000000020E+00    1.3450999999999999E+01
OT    5.8149999999999924E-01    3.6769999999999996E+00    3.4419999999999988E+00
HT    1.2749999999999923E-01    4.3570000000000002E+00    3.9399999999999991E+00
HT    6.1349999999999927E-01    4.0160000000000000E+00    2.5469999999999988E+00
OT    1.1236499999999999E+01    5.7409999999999997E+00    1.0632000000000000E+01
HT    1.2052500000000000E+01    6.2180000000000000E+00    1.0780999999999999E+01
HT    1.0931500000000000E+01    5.5080000000000000E+00    1.1508999999999999E+01
OT    1.0667499999999999E+01    1.8349999999999995E+00    7.5319999999999983E+00
HT    1.1020500000000000E+01    9.8299999999999976E-01    7.7879999999999994E+00
HT    1.1380500000000001E+01    2.4499999999999997E+00    7.6989999999999990E+00
OT    1.5654999999999992E+00    1.1699999999999999E+00    2.7029999999999990E+00
HT    1.6664999999999992E+00    1.0299999999999996E+00    3.6449999999999987E+00
HT    1.0704999999999993E+00    1.9859999999999998E+00    2.6329999999999987E+00
OT    1.1574499999999999E+01    7.8950000000000005E+00    1.3152999999999999E+01
HT    1.1190500000000002E+01    7.4619999999999997E+00    1.3914999999999999E+01
HT    1.0821499999999999E+01    8.2199999999999989E+00    1.2657000000000000E+01
OT    1.9754999999999991E+00    2.7299999999999963E-01    1.1346000000000000E+01
HT    1.3034999999999992E+00    3.2999999999999627E-02    1.1982999999999999E+01
HT    2.4904999999999995E+00    9.5099999999999973E-01    1.1785000000000000E+01
OT    4.1964999999999995E+00    1.4943000000000001E+01    1.3568999999999999E+01
HT    3.6474999999999995E+00    1.4973000000000001E+01    1.2786000000000000E+01
HT    3.8294999999999995E+00    1.4230000000000000E+01    1.4091999999999999E+01
OT    1.2936500000000001E+01    1.3129999999999999E+01    5.0259999999999980E+00