!!! Generated by ASE !!!
&FORCE_EVAL
   METHOD Quickstep
   &DFT
      BASIS_SET_FILE_NAME  BASIS_MOLOPT_UZH
      POTENTIAL_FILE_NAME  POTENTIAL_UZH
      CHARGE 0
      &MGRID
         NGRIDS 5
         CUTOFF 550
         REL_CUTOFF 80
      &END MGRID
      &QS
         METHOD GPW
         EPS_DEFAULT 1.0E-12
      &END QS
      &POISSON
         PERIODIC XYZ
         PSOLVER  PERIODIC
      &END POISSON
      &SCF
         SCF_GUESS ATOMIC
         EPS_SCF 1.0E-5
         MAX_SCF 800
         &MIXING
            ALPHA 0.4
         &END MIXING
         &OT
            MINIMIZER CG
         &END OT
      &END SCF
      &XC
         &VDW_POTENTIAL
            DISPERSION_FUNCTIONAL PAIR_POTENTIAL
            &PAIR_POTENTIAL
               TYPE DFTD3
               PARAMETER_FILE_NAME  dftd3.dat
               REFERENCE_FUNCTIONAL PBE
               CALCULATE_C9_TERM TRUE
               REFERENCE_C9_TERM TRUE
            &END PAIR_POTENTIAL
         &END VDW_POTENTIAL
         &XC_FUNCTIONAL PBE
         &END XC_FUNCTIONAL
      &END XC
   &END DFT
   &SUBSYS
      &KIND H
         ELEMENT H
         BASIS_SET TZV2P-MOLOPT-PBE-GTH-q1
         POTENTIAL GTH-PBE-q1
      &END KIND
      &KIND C
         ELEMENT C
         BASIS_SET TZV2P-MOLOPT-PBE-GTH-q4
         POTENTIAL GTH-PBE-q4
      &END KIND
      &KIND P
         ELEMENT P
         BASIS_SET TZV2P-MOLOPT-PBE-GTH-q5
         POTENTIAL GTH-PBE-q5
      &END KIND
      &KIND O
         ELEMENT O
         BASIS_SET TZV2P-MOLOPT-PBE-GTH-q6
         POTENTIAL GTH-PBE-q6
      &END KIND
      &PRINT
         &ATOMIC_COORDINATES LOW
         &END ATOMIC_COORDINATES
         &INTERATOMIC_DISTANCES LOW
         &END INTERATOMIC_DISTANCES
         &KINDS
            POTENTIAL
         &END KINDS
         &TOPOLOGY_INFO
            PSF_INFO
         &END TOPOLOGY_INFO
      &END PRINT
      &COORD
         C 7.485070440918207169e+00 8.724570084363222122e+00 9.026049293577671051e+00
         O 6.616850111633539200e+00 8.622380066663026810e+00 1.018866983801126480e+01
         P 6.405510161072015762e+00 7.167529869824647903e+00 1.080494944006204605e+01
         O 5.249950144439935684e+00 6.469620037823915482e+00 9.967599548399448395e+00
         O 5.768840048462152481e+00 7.465219784528017044e+00 1.221061960607767105e+01
         O 7.627060148864984512e+00 6.325969982892274857e+00 1.073160997778177261e+01
         H 8.533670637756586075e+00 8.672849465161561966e+00 9.337629951536655426e+00
         H 7.280200216919183731e+00 9.690170098096132278e+00 8.561109222471714020e+00
         H 7.274059984833002090e+00 7.914219666272401810e+00 8.318879760801792145e+00
         H 4.381390307098627090e+00 6.931449700146913528e+00 9.955779708921909332e+00
         H 6.400950167328119278e+00 7.750729847699403763e+00 1.293039957433938980e+01
         O 1.036450025811791420e+01 1.324849968031048775e+01 6.098499454557895660e+00
         H 9.509499762207269669e+00 1.357449989393353462e+01 6.378499664366245270e+00
         H 1.092350027337670326e+01 1.334850006178021431e+01 6.869499839842319489e+00
         O 1.076850054040551186e+01 6.134499836713075638e+00 1.004549948126077652e+01
         H 1.026350042596459389e+01 6.669499684125185013e+00 1.065949980169534683e+01
         H 1.046150038018822670e+01 5.240499783307313919e+00 1.019749990850687027e+01
         O 6.247500155121088028e+00 8.264499474316835403e+00 5.704499877989292145e+00
         H 6.567500326782464981e+00 7.412499714642763138e+00 5.406499542295932770e+00
         H 6.069500181823968887e+00 8.141500283032655716e+00 6.636499561369419098e+00
         O 1.185050031915307045e+01 1.388749961927533150e+01 8.299500145018100739e+00
         H 1.166850015893578529e+01 1.463549976423382759e+01 8.868499435484409332e+00
         H 1.274250051751732826e+01 1.403549938276410103e+01 7.985499538481235504e+00
         O 1.854500267654657364e+00 1.333049945905804634e+01 6.448499836027622223e+00
         H 1.242500159889459610e+00 1.357050018385052681e+01 7.143499530851840973e+00
         H 1.793500158935785294e+00 1.237649993970990181e+01 6.392499603331089020e+00
         O 1.345750067010521889e+01 1.423449974134564400e+01 3.731499589979648590e+00
         H 1.303750059381127357e+01 1.338349990919232368e+01 3.859499610960483551e+00
         H 1.431350061669945717e+01 1.402649955824017525e+01 3.357499755918979645e+00
         O 1.364950010553002357e+01 1.393499780446290970e+00 9.239499725401401520e+00
         H 1.343150064721703529e+01 4.914998002350330353e-01 9.472499527037143707e+00
         H 1.280249998345971107e+01 1.833499837666749954e+00 9.162500061094760895e+00
         O 1.039150068536400795e+01 3.562499810010194778e+00 1.068449942022562027e+01
         H 9.766500685364007950e+00 3.636499691754579544e+00 1.140649954229593277e+01
         H 1.088249990716576576e+01 2.763499785214662552e+00 1.087349954992532730e+01
         O 8.427499983459711075e+00 1.654499817639589310e+00 1.308250013738870621e+01
         H 8.781500075012445450e+00 7.654998190701007843e-01 1.304950014501810074e+01
         H 8.070500586181879044e+00 1.803499866276979446e+00 1.220750013738870621e+01
         O 4.357500288635492325e+00 8.139499474316835403e+00 1.927499689161777496e+00
         H 3.697500202804803848e+00 8.688500214368104935e+00 1.504499711096286774e+00
         H 3.851500246673822403e+00 7.488499928265810013e+00 2.414499677717685699e+00
         O 1.464500162750482559e+00 1.060649948194622993e+01 6.668499626219272614e+00
         H 1.665500257164239883e+00 9.940500069409608841e+00 6.011499561369419098e+00
         H 1.309500191360712051e+00 1.011050014570355415e+01 7.472499527037143707e+00
         O 6.776500437408685684e+00 1.254349975660443306e+01 3.802499689161777496e+00
         H 6.747500155121088028e+00 1.179950027540326118e+01 3.201499618589878082e+00
         H 6.987500403076410294e+00 1.215849952772259712e+01 4.652499832212924957e+00
         O 3.813500139862298965e+00 4.527499962598085403e+00 4.715499557554721832e+00
         H 4.432500097900629044e+00 5.127499867230653763e+00 4.299499668180942535e+00
         H 4.154500219970941544e+00 3.655499745160341263e+00 4.519499458372592926e+00
         O 2.147500250488519669e+00 9.542499352246522903e+00 8.354996815323829651e-01
         H 1.673500154167413712e+00 9.854499626904726028e+00 1.606499709188938141e+00
         H 1.553500268608331680e+00 9.711499977856874466e+00 1.044996827840805054e-01
         O 3.406500313431024551e+00 1.236649971082806587e+01 3.886499561369419098e+00
         H 3.746500227600336075e+00 1.148449974134564400e+01 4.037499584257602692e+00
         H 2.766500208526849747e+00 1.249950008466839790e+01 4.584499515593051910e+00
         O 1.434050009027123451e+01 6.961499977856874466e+00 8.374499954283237457e+00
         H 1.399150011315941811e+01 6.445499707013368607e+00 9.101499237120151520e+00
         H 1.502050039544701576e+01 7.506499577313661575e+00 8.771499313414096832e+00
         O 9.911500189453363419e+00 8.250499535351991653e+00 1.260649935156106949e+01
         H 1.002250025048851967e+01 9.145499993115663528e+00 1.228649965673685074e+01
         H 9.080499861389398575e+00 8.267499733716249466e+00 1.308149973303079605e+01
         O 1.278950044885277748e+01 1.096650009229779243e+01 1.499249998480081558e+01
         H 1.300850031152367592e+01 1.182649974897503853e+01 1.535149923712015152e+01
         H 1.183450052514672279e+01 1.091950016096234322e+01 1.504950014501810074e+01
         O 1.420500252395868301e+00 1.834499765187501907e+00 5.420499481260776520e+00
         H 1.111500237137079239e+00 1.705499816685914993e+00 6.317499794065952301e+00
         H 1.884500239044427872e+00 1.024499822407960892e+00 5.207499660551548004e+00
         O 5.642500136047601700e+00 9.049980714917182922e-02 5.490499652922153473e+00
         H 6.571500036865472794e+00 1.524998135864734650e-01 5.267499603331089020e+00
         H 5.631499979645013809e+00 -3.750019147992134094e-02 6.439499534666538239e+00
         O 7.198500368744134903e+00 1.092749958112835884e+01 6.146499790251255035e+00
         H 6.665500376373529434e+00 1.121849994733929634e+01 6.885499633848667145e+00
         H 6.754500124603509903e+00 1.014350013807415962e+01 5.823499836027622223e+00
         O 5.242500040680170059e+00 2.380499888211488724e+00 4.158499874174594879e+00
         H 5.804500315338373184e+00 2.205499697476625443e+00 3.403499759733676910e+00
         H 5.490500185638666153e+00 1.716499853879213333e+00 4.800499595701694489e+00
         O 4.797500345855951309e+00 4.344499874860048294e+00 7.238499797880649567e+00
         H 4.385500166565179825e+00 3.494499731808900833e+00 7.389499820768833160e+00
         H 4.274500105530023575e+00 4.744499970227479935e+00 6.542499698698520660e+00
         O 9.535499785095453262e+00 1.579499769955873489e+00 6.506499446928501129e+00
         H 9.013500425964593887e+00 2.381499815732240677e+00 6.475499786436557770e+00
         H 9.027500364929437637e+00 9.444998390972614288e-01 6.000499881803989410e+00
         O 1.495750067010521889e+01 3.053499747067689896e+00 1.113749948889017105e+01
         H 1.443250009790062904e+01 2.484499741345643997e+00 1.057449976354837418e+01
         H 1.469950029626488686e+01 3.940499830991029739e+00 1.088949934393167496e+01
         O 1.045450041070580482e+01 1.288749961927533150e+01 1.297249952703714371e+01
         H 1.121350023522973061e+01 1.346949939802289009e+01 1.301449934393167496e+01
         H 1.046550009027123451e+01 1.254349975660443306e+01 1.207949987798929214e+01
         O 3.738500330597162247e+00 1.224649982526898384e+01 1.604050032049417496e+01
         H 4.566500399261713028e+00 1.200450019910931587e+01 1.562649980932474136e+01
         H 3.151500198990106583e+00 1.151549987867474556e+01 1.584749952703714371e+01
         O 2.483500216156244278e+00 6.502499867230653763e+00 2.688499607145786285e+00
         H 2.560500118881464005e+00 5.785499859601259232e+00 3.318499721586704254e+00
         H 1.570500228554010391e+00 6.780499745160341263e+00 2.751499570906162262e+00
         O 1.510550043359398842e+01 1.117849998548626900e+01 6.706499733030796051e+00
         H 1.476850054040551186e+01 1.128950004652142525e+01 7.595499671995639801e+00
         H 1.432349989190697670e+01 1.113449935987591743e+01 6.156499542295932770e+00
         O 7.617500040680170059e+00 1.190499830991029739e+00 9.705499328672885895e+00
         H 7.355500433593988419e+00 2.107499886304140091e+00 9.619499839842319489e+00
         H 8.392500136047601700e+00 1.109499860554933548e+00 9.149499572813510895e+00
         O 8.936499807983636856e+00 1.603750019147992134e+01 1.577499665319919586e+00
         H 8.674500677734613419e+00 1.567150001600384712e+01 7.324996963143348694e-01
         H 8.890500281006097794e+00 1.529849987104535103e+01 2.184499658644199371e+00
         O 8.532500479370355606e+00 1.290849952772259712e+01 1.014350000768899918e+01
         H 9.324500296264886856e+00 1.240649967268109322e+01 9.951499618589878082e+00
         H 7.885500166565179825e+00 1.258549957349896431e+01 9.516500152647495270e+00
         O 3.184500191360712051e+00 5.588499832898378372e+00 1.267650000005960464e+01
         H 2.764500115066766739e+00 6.180499840527772903e+00 1.205249945074319839e+01
         H 2.737500164657831192e+00 4.751499939709901810e+00 1.255249945074319839e+01
         O 3.796500179916620255e+00 1.632499862462282181e+00 9.920499481260776520e+00
         H 2.908500168472528458e+00 1.278499770909547806e+00 9.897499717772006989e+00
         H 3.680500242859125137e+00 2.578499842435121536e+00 9.824499763548374176e+00
         O 1.316350004449486732e+01 4.013500023633241653e+00 6.608499683439731598e+00
         H 1.402849981561303139e+01 3.654499817639589310e+00 6.807499565184116364e+00
         H 1.261450025811791420e+01 3.736499834805727005e+00 7.341499485075473785e+00
         O 8.736499998718500137e+00 1.089350013807415962e+01 1.342549959570169449e+01
         H 9.614500258117914200e+00 1.127550010755658150e+01 1.344249979406595230e+01
         H 8.202500555664300919e+00 1.149950008466839790e+01 1.393749967962503433e+01
         O 1.465450021997094154e+01 7.616499710828065872e+00 5.814499534666538239e+00
         H 1.404650041833519936e+01 6.929499913007020950e+00 5.541499771177768707e+00
         H 1.463949987664818764e+01 7.584499645978212357e+00 6.771499790251255035e+00
         O 1.035750028863549232e+01 1.305549984052777290e+01 4.094996824860572815e-01
         H 1.069650003686547279e+01 1.365050010755658150e+01 1.077499665319919586e+00
         H 9.407500479370355606e+00 1.316549949720501900e+01 4.504996910691261292e-01
         O 1.288850042596459389e+01 1.531249981001019478e+01 1.258149973303079605e+01
         H 1.226050016656517982e+01 1.596049957349896431e+01 1.289949957281351089e+01
         H 1.360149976983666420e+01 1.533549957349896431e+01 1.321949926763772964e+01
         O 1.151350042596459389e+01 2.567499924451112747e+00 8.300499595701694489e+00
         H 1.120450041070580482e+01 1.722499776631593704e+00 7.975499786436557770e+00
         H 1.080350038781762123e+01 2.883499909192323685e+00 8.858499206602573395e+00
         O 7.659500334411859512e+00 3.774499703198671341e+00 6.197499908506870270e+00
         H 6.937500212341547012e+00 3.861499834805727005e+00 6.819499649107456207e+00
         H 7.301500055938959122e+00 4.089499760419130325e+00 5.367499507963657379e+00
         O 3.624500248581171036e+00 1.087250022962689400e+01 1.123849932104349136e+01
         H 4.549500200897455215e+00 1.108450012281537056e+01 1.111449972540140152e+01
         H 3.244500134140253067e+00 1.166950016096234322e+01 1.160849920660257339e+01
         O 1.453650018945336342e+01 9.724998362362384796e-01 4.720499671995639801e+00
         H 1.395650026574730873e+01 1.112499762326478958e+00 3.972499765455722809e+00
         H 1.538750002160668373e+01 1.299499798566102982e+00 4.429499782621860504e+00
         O 7.547500345855951309e+00 8.368499565869569778e+00 1.413549963384866714e+01
         H 7.780500147491693497e+00 9.295499611645936966e+00 1.417849985510110855e+01
         H 7.916500303894281387e+00 7.990499783307313919e+00 1.493349996954202652e+01
         O 6.543500158935785294e+00 2.162499714642763138e+00 1.687499679625034332e+00
         H 5.838500235229730606e+00 1.737499762326478958e+00 1.198499716818332672e+00
         H 6.653500292450189590e+00 3.011499691754579544e+00 1.260499633848667145e+00
         O 1.383049986138939857e+01 9.644499588757753372e+00 3.460499681532382965e+00
         H 1.397350046411156654e+01 9.047499466687440872e+00 4.195499576628208160e+00
         H 1.336750051751732826e+01 1.038949947431683540e+01 3.844499744474887848e+00
         O 8.140500281006097794e+00 8.904499817639589310e+00 2.383499778807163239e+00
         H 8.275500509887933731e+00 7.957499790936708450e+00 2.347499765455722809e+00
         H 8.906500075012445450e+00 9.237500000745058060e+00 2.850499786436557770e+00
         O 1.576850054040551186e+01 6.364499855786561966e+00 3.328499712049961090e+00
         H 1.591049978509545326e+01 6.271499920636415482e+00 4.270499862730503082e+00
         H 1.481750032678246498e+01 6.403499890118837357e+00 3.231499589979648590e+00
         O 1.467749998345971107e+01 1.034549980238080025e+01 1.298949972540140152e+01
         H 1.409150049462914467e+01 1.043049984052777290e+01 1.374149958044290543e+01
         H 1.429550001397728920e+01 1.091649990156292915e+01 1.232149950414896011e+01
         O 1.075450060144066811e+01 1.035649948194622993e+01 6.014996543526649475e-01
         H 1.077350065484642982e+01 1.131049995496869087e+01 5.304996743798255920e-01
         H 9.825499746948480606e+00 1.013049964979290962e+01 5.674996748566627502e-01
         O 1.873500201851129532e+00 3.077499914914369583e+00 1.249050012975931168e+01
         H 1.762500260025262833e+00 2.383499909192323685e+00 1.314049974828958511e+01
         H 1.576500270515680313e+00 2.687499810010194778e+00 1.166849962621927261e+01
         O 9.349499914795160294e+00 1.491950016096234322e+01 1.478149954229593277e+01
         H 9.214500639587640762e+00 1.430549984052777290e+01 1.550349966436624527e+01
         H 9.492500517517328262e+00 1.436349945142865181e+01 1.401650015264749527e+01
         O 1.263050005212426186e+01 4.245499897748231888e+00 1.683499731123447418e+00
         H 1.242450067773461342e+01 4.769499588757753372e+00 2.457499660551548004e+00
         H 1.200049993768334389e+01 3.524499703198671341e+00 1.706499733030796051e+00
         O 1.548950025811791420e+01 9.196499634534120560e+00 1.184499658644199371e+00
         H 1.535849973931908607e+01 8.309499550610780716e+00 8.504996672272682190e-01
         H 1.496150038018822670e+01 9.232499886304140091e+00 1.983499683439731598e+00
         O 1.137350008264183998e+01 5.113499928265810013e+00 4.464499630033969879e+00
         H 1.077149984613060951e+01 4.476499844342470169e+00 4.080499805510044098e+00
         H 1.181849977746605873e+01 4.633499909192323685e+00 5.163499511778354645e+00
         O 9.655002094805240631e-01 6.544998176395893097e-01 1.393850008398294449e+01
         H 8.950021490454673767e-02 5.724998004734516144e-01 1.356149927526712418e+01
         H 8.435002304613590240e-01 1.202499795705080032e+00 1.471349970251321793e+01
         O 5.927499983459711075e+00 4.783500004559755325e+00 7.774996533989906311e-01
         H 6.570500109344720840e+00 5.267499733716249466e+00 2.584996894001960754e-01
         H 5.808500025421380997e+00 5.313499737530946732e+00 1.565499700605869293e+00
         O 1.247850057855248451e+01 1.177049999311566353e+01 5.533499874174594879e+00
         H 1.171650049462914467e+01 1.230749969556927681e+01 5.750499881803989410e+00
         H 1.216850015893578529e+01 1.086949997022747993e+01 5.621499694883823395e+00
         O 4.098499987274408340e+00 9.590499687939882278e+00 4.305499710142612457e+00
         H 3.516500208526849747e+00 9.417499352246522903e+00 5.045499481260776520e+00
         H 4.716500017791986465e+00 8.859499741345643997e+00 4.310499824583530426e+00
         O 4.419500086456537247e+00 1.261499810963869095e+00 1.266749922186136246e+01
         H 4.443500254303216934e+00 1.281499791890382767e+00 1.171049944311380386e+01
         H 3.529500219970941544e+00 9.804997928440570831e-01 1.287849966436624527e+01
         O 4.386500094085931778e+00 1.385749988630414009e+01 7.940499462187290192e+00
         H 4.619500372558832169e+00 1.410149936750531197e+01 7.044499553740024567e+00
         H 3.453500244766473770e+00 1.364850025251507759e+01 7.897499717772006989e+00
         O 1.011849996820092201e+01 3.083499718457460403e+00 3.205499567091464996e+00
         H 9.798500273376703262e+00 3.380499888211488724e+00 2.353499568998813629e+00
         H 9.729500029236078262e+00 2.215499926358461380e+00 3.318499721586704254e+00
         O 6.069500181823968887e+00 6.131499577313661575e+00 3.545499719679355621e+00
         H 5.761500094085931778e+00 6.962499905377626419e+00 3.184499658644199371e+00
         H 7.012500021606683731e+00 6.134499836713075638e+00 3.385499633848667145e+00
         O 2.365500185638666153e+00 3.747499752789735794e+00 8.627499260008335114e+00
         H 1.443500254303216934e+00 3.648499775677919388e+00 8.391500152647495270e+00
         H 2.612500164657831192e+00 4.604499626904726028e+00 8.278499282896518707e+00
         O 4.231500361114740372e+00 9.130499649792909622e+00 7.784499801695346832e+00
         H 4.491500113159418106e+00 9.868499565869569778e+00 8.336499847471714020e+00
         H 3.584500286728143692e+00 8.656499672681093216e+00 8.307499565184116364e+00
         O 9.085002280771732330e-01 7.654998190701007843e-01 2.942499794065952301e+00
         H 7.775001861155033112e-01 9.784998185932636261e-01 3.866499580442905426e+00
         H 1.660500261932611465e+00 1.294499803334474564e+00 2.678499616682529449e+00
         O 1.399950048699975014e+01 1.430349998548626900e+01 6.712499774992465973e+00
         H 1.382850000634789467e+01 1.523849945142865181e+01 6.594499744474887848e+00
         H 1.376350042596459389e+01 1.390949993208050728e+01 5.872499622404575348e+00
         O 1.365750047937035561e+01 1.517049961164593697e+01 1.563449922949075699e+01
         H 1.423750040307641029e+01 1.592949943616986275e+01 1.570349947363138199e+01
         H 1.417850038781762123e+01 1.443949966505169868e+01 1.596549955755472183e+01
         O 2.101500246673822403e+00 1.434449939802289009e+01 3.244996741414070129e-01
         H 2.569500181823968887e+00 1.517049961164593697e+01 4.464996829628944397e-01
         H 1.195500228554010391e+00 1.454549961164593697e+01 5.584996715188026428e-01
         O 9.892500136047601700e+00 4.641499806195497513e+00 7.554996982216835022e-01
         H 9.420500013977289200e+00 4.398499775677919388e+00 -4.050032049417495728e-02
         H 1.063850042596459389e+01 5.153499890118837357e+00 4.444996789097785950e-01
         O 1.566549989953637123e+01 1.225349979475140572e+01 1.249499715864658356e+00
         H 1.578549978509545326e+01 1.132349948957562447e+01 1.441499628126621246e+00
         H 1.478950044885277748e+01 1.230850009992718697e+01 8.654996529221534729e-01
         O 7.847500059753656387e+00 1.483549957349896431e+01 6.623499549925327301e+00
         H 7.960499975830316544e+00 1.570849971845746040e+01 6.999499477446079254e+00
         H 6.959500048309564590e+00 1.484049968793988228e+01 6.266499675810337067e+00
         O 2.328500244766473770e+00 1.328750019147992134e+01 1.274649969488382339e+01
         H 3.009500239044427872e+00 1.368649940565228462e+01 1.220449987798929214e+01
         H 2.260500166565179825e+00 1.386449985578656197e+01 1.350749937444925308e+01
         O 1.374349996820092201e+01 1.592499781399965286e+00 2.018499769270420074e+00
         H 1.305650064721703529e+01 2.257499743252992630e+00 1.973499692976474762e+00
         H 1.373450014367699623e+01 1.179499793797731400e+00 1.155499733984470367e+00
         O 6.976500246673822403e+00 3.811499882489442825e+00 9.492499984800815582e+00
         H 7.551500055938959122e+00 4.375500012189149857e+00 1.000849977880716324e+01
         H 6.245500300079584122e+00 4.376499939709901810e+00 9.242499984800815582e+00
         O 4.475500319153070450e+00 1.523349933698773384e+01 1.147449938207864761e+01
         H 4.741500113159418106e+00 1.558250026777386665e+01 1.062349954992532730e+01
         H 3.755500290542840958e+00 1.580049972608685493e+01 1.175249926000833511e+01
         O 7.859500143676996231e+00 5.140499878674745560e+00 1.313849989324808121e+01
         H 6.952500078827142715e+00 4.978499699383974075e+00 1.339549986273050308e+01
         H 7.814500067383050919e+00 5.323499966412782669e+00 1.220049921423196793e+01
         O 1.113150045648217201e+01 1.147150020673871040e+01 9.971500076353549957e+00
         H 1.173649999871850014e+01 1.074149971082806587e+01 9.837499298155307770e+00
         H 1.144349977746605873e+01 1.215349941328167915e+01 9.376499809324741364e+00
         O 5.758500311523675919e+00 1.443150024488568306e+01 1.398749987035989761e+01
         H 5.122500155121088028e+00 1.501049976423382759e+01 1.440849939733743668e+01
         H 5.663500044494867325e+00 1.461050014570355415e+01 1.305249945074319839e+01
         O 5.066500399261713028e+00 1.286949997022747993e+01 1.120499648153781891e+00
         H 5.332500193268060684e+00 1.218649940565228462e+01 1.736499704420566559e+00
         H 4.110500071197748184e+00 1.287549953535199165e+01 1.167499698698520660e+00
         O 9.785002209246158600e-01 1.399849968031048775e+01 9.248499549925327301e+00
         H 6.095002032816410065e-01 1.485649948194622993e+01 9.037500061094760895e+00
         H 2.155002094805240631e-01 1.344649963453412056e+01 9.421499885618686676e+00
         O 5.345500204712152481e+00 1.436750011518597603e+01 5.160499729216098785e+00
         H 6.046500418335199356e+00 1.400450019910931587e+01 4.618499912321567535e+00
         H 4.539500448852777481e+00 1.409349994733929634e+01 4.723499454557895660e+00
         O 2.540500137954950333e+00 1.015349941328167915e+01 1.454249922186136246e+01
         H 1.817500207573175430e+00 9.526499558240175247e+00 1.453649965673685074e+01
         H 2.774500105530023575e+00 1.025949935987591743e+01 1.362049929052591324e+01
         O 1.794500205665826797e+00 8.042499352246522903e+00 5.353499568998813629e+00
         H 1.016500208526849747e+00 7.668499756604433060e+00 5.764499820768833160e+00
         H 2.103500101715326309e+00 7.359499741345643997e+00 4.758499778807163239e+00
         O 1.359050009027123451e+01 5.388500023633241653e+00 1.421049944311380386e+01
         H 1.397950002923607826e+01 5.888500023633241653e+00 1.349249998480081558e+01
         H 1.264649984613060951e+01 5.461499977856874466e+00 1.407050005346536636e+01
         O 9.121500227600336075e+00 1.446650009229779243e+01 3.840499795973300934e+00
         H 9.818499777466058731e+00 1.385350017622113228e+01 4.072499908506870270e+00
         H 8.374500486999750137e+00 1.419349937513470650e+01 4.372499622404575348e+00
         O 1.074549982324242592e+01 5.562499810010194778e+00 1.361949983984231949e+01
         H 9.838500235229730606e+00 5.316499996930360794e+00 1.380049959570169449e+01
         H 1.068150064721703529e+01 6.413499642163515091e+00 1.318449942022562027e+01
         O 2.714500162750482559e+00 4.753499794751405716e+00 4.304996803402900696e-01
         H 1.809500191360712051e+00 4.440499592572450638e+00 4.384996667504310608e-01
         H 2.663500282913446426e+00 5.644499588757753372e+00 7.744996920228004456e-01
         O 6.352500174194574356e+00 1.169849948957562447e+01 1.125649992376565933e+01
         H 6.728500101715326309e+00 1.257849960401654243e+01 1.125549951940774918e+01
         H 6.870500300079584122e+00 1.121650009229779243e+01 1.190149942785501480e+01
         O 1.366350004449486732e+01 2.293499756604433060e+00 1.386550012975931168e+01
         H 1.398950025811791420e+01 2.267499733716249466e+00 1.296649996191263199e+01
         H 1.346450063958764076e+01 3.216499853879213333e+00 1.402249971777200699e+01
         O 1.457650015130639076e+01 7.353499699383974075e+00 1.200849977880716324e+01
         H 1.553050062432885170e+01 7.379499722272157669e+00 1.207949987798929214e+01
         H 1.428250047937035561e+01 8.162500191479921341e+00 1.242849985510110855e+01
         O 1.186050054803490639e+01 1.184549980238080025e+01 2.786499656736850739e+00
         H 1.187650034204125404e+01 1.110249977186322212e+01 2.183499731123447418e+00
         H 1.142550012841820717e+01 1.151049976423382759e+01 3.569499649107456207e+00
         O 2.843500111252069473e+00 8.193499375134706497e+00 1.002350012212991714e+01
         H 3.304500315338373184e+00 8.881500054150819778e+00 1.050450006872415543e+01
         H 1.920500252395868301e+00 8.441499520093202591e+00 1.007549921423196793e+01
         O 1.304749986901879311e+01 6.644499588757753372e+00 3.175499595701694489e+00
         H 1.238750002160668373e+01 7.136499691754579544e+00 2.686499752104282379e+00
         H 1.256550047174096107e+01 6.262499619275331497e+00 3.909499563276767731e+00
         O 1.621500227600336075e+00 4.939499665051698685e+00 1.567650000005960464e+01
         H 7.925002314150333405e-01 5.048499871045351028e+00 1.521049944311380386e+01
         H 2.263500187546014786e+00 4.767499733716249466e+00 1.498749987035989761e+01
         O 1.153850004449486732e+01 7.584499645978212357e+00 8.019499458372592926e+00
         H 1.245850012078881264e+01 7.325499821454286575e+00 8.061499275267124176e+00
         H 1.115650007501244545e+01 7.245499897748231888e+00 8.828499473631381989e+00
         O 5.389500353485345840e+00 3.940499830991029739e+00 1.323249975591897964e+01
         H 4.728500101715326309e+00 4.518499661237001419e+00 1.285149923712015152e+01
         H 4.992500040680170059e+00 3.069499779492616653e+00 1.320250002294778824e+01
         O 1.359550020471215248e+01 5.320499707013368607e+00 1.047049967199563980e+01
         H 1.398750040307641029e+01 5.935499954968690872e+00 1.108950010687112808e+01
         H 1.265450021997094154e+01 5.488499928265810013e+00 1.052849928289651871e+01
         O 5.902500364929437637e+00 1.050149993970990181e+01 1.930499710142612457e+00
         H 6.556500170379877090e+00 9.808500099927186966e+00 2.016499675810337067e+00
         H 5.151500437408685684e+00 1.018649940565228462e+01 2.432499565184116364e+00
         O 8.015500281006097794e+00 1.554849987104535103e+01 1.080150000005960464e+01
         H 7.266500208526849747e+00 1.557250003889203072e+01 1.020549932867288589e+01
         H 8.386500570923089981e+00 1.467450027540326118e+01 1.068449942022562027e+01
         O 1.170350000634789467e+01 1.335499811917543411e+00 1.156949964910745621e+01
         H 1.237850019708275795e+01 1.153499770909547806e+00 1.222249952703714371e+01
         H 1.104450056329369545e+01 6.554998047649860382e-01 1.170849958807229996e+01
         O 8.670500013977289200e+00 6.319499779492616653e+00 2.730499662458896637e+00
         H 9.172499869018793106e+00 6.309500027447938919e+00 3.545499719679355621e+00
         H 9.170500013977289200e+00 5.762499619275331497e+00 2.133499778807163239e+00
         O 6.234500143676996231e+00 1.203750019147992134e+01 8.426500000059604645e+00
         H 5.540500376373529434e+00 1.267650013044476509e+01 8.260499633848667145e+00
         H 6.162500116974115372e+00 1.184249954298138618e+01 9.361499466001987457e+00
         O 1.403549978509545326e+01 1.042450027540326118e+01 9.429499305784702301e+00
         H 1.461750051751732826e+01 1.103849964216351509e+01 9.878499664366245270e+00
         H 1.453850004449486732e+01 9.611499596387147903e+00 9.378499664366245270e+00
         O 1.561500165611505508e+00 4.840499687939882278e+00 6.188499607145786285e+00
         H 2.335500214248895645e+00 4.471499729901552200e+00 5.763499893248081207e+00
         H 8.935001827776432037e-01 4.159499932080507278e+00 6.103499568998813629e+00
         O 6.560500357300043106e+00 1.216450004652142525e+01 1.524849954992532730e+01