&GLOBAL
  PROJECT ene_bsse
  RUN_TYPE BSSE
  PRINT_LEVEL MEDIUM
&END GLOBAL

&FORCE_EVAL
  METHOD Quickstep              ! Electronic structure method (DFT,...)
  &BSSE
    &FRAGMENT
      LIST 1 2 3 4 5 6 7 8 9 10 11
    &END FRAGMENT
    &FRAGMENT
      LIST 12..332
    &END FRAGMENT
    &PRINT
      &RESTART ON
      &END
    &END
  &END BSSE
  &DFT
    BASIS_SET_FILE_NAME  BASIS_MOLOPT_UZH
    POTENTIAL_FILE_NAME  POTENTIAL_UZH
    CHARGE 0                              ! set charge of the sys here
    &MGRID
      NGRIDS 5
      CUTOFF 550                          ! converge this cutoff before production
      REL_CUTOFF 80                       ! converge this cutoff before production
    &END MGRID
    &QS
      METHOD GPW
      EPS_DEFAULT 1.0E-12
    &END QS
    &POISSON                    ! Solver requested for non periodic calculations
      PERIODIC XYZ
      PSOLVER  PERIODIC         ! Type of solver
    &END POISSON
    &SCF                        ! Parameters controlling the convergence of the scf. This section should not be changed. 
      SCF_GUESS ATOMIC
      EPS_SCF 1.0E-5
      MAX_SCF 500
      &MIXING
        ALPHA 0.4
      &END MIXING
      &OT
        MINIMIZER CG
      &END OT
    &END SCF
    &XC                        ! Parameters needed to compute the electronic exchange potential 
      &VDW_POTENTIAL
        DISPERSION_FUNCTIONAL PAIR_POTENTIAL
        &PAIR_POTENTIAL
          TYPE DFTD3
          PARAMETER_FILE_NAME dftd3.dat
          REFERENCE_FUNCTIONAL PBE
          CALCULATE_C9_TERM TRUE
          REFERENCE_C9_TERM TRUE
        &END PAIR_POTENTIAL
      &END VDW_POTENTIAL
      &XC_FUNCTIONAL PBE
      &END XC_FUNCTIONAL
    &END XC
  &END DFT

  &SUBSYS
    &CELL
      SYMMETRY CUBIC
      ABC 16.0 16.0 16.0                  ! put yourcell dims here (Angström)
      ALPHA_BETA_GAMMA  90.0 90.0 90.0
      PERIODIC XYZ
    &END CELL
    &TOPOLOGY                    ! Section used to center the atomic coordinates in the given box. Useful for big molecules
      &CENTER_COORDINATES
      &END
      COORD_FILE_FORMAT pdb
      COORD_FILE_NAME  smallbox.pdb       ! path to your pdb file
      CONN_FILE_FORMAT  upsf
      CONN_FILE_NAME  smallbox.psf        ! path to your topology file
    &END
    &KIND H_ghost
      BASIS_SET TZV2P-MOLOPT-PBE-GTH-q1
      GHOST
    &END KIND
    &KIND C_ghost
      BASIS_SET TZV2P-MOLOPT-PBE-GTH-q4
      GHOST
    &END KIND
    &KIND P_ghost
      BASIS_SET TZV2P-MOLOPT-PBE-GTH-q5
      GHOST
    &END KIND
    &KIND O_ghost
      BASIS_SET TZV2P-MOLOPT-PBE-GTH-q6
      GHOST
    &END KIND
    &KIND H
      ELEMENT H
      BASIS_SET TZV2P-MOLOPT-PBE-GTH-q1
      POTENTIAL GTH-PBE-q1
    &END KIND
    &KIND C
      ELEMENT C
      BASIS_SET TZV2P-MOLOPT-PBE-GTH-q4
      POTENTIAL GTH-PBE-q4
    &END KIND
    &KIND P
      ELEMENT P
      BASIS_SET TZV2P-MOLOPT-PBE-GTH-q5
      POTENTIAL GTH-PBE-q5
    &END KIND
    &KIND O
      ELEMENT O
      BASIS_SET TZV2P-MOLOPT-PBE-GTH-q6
      POTENTIAL GTH-PBE-q6
    &END KIND
    &PRINT
      &ATOMIC_COORDINATES LOW
      &END ATOMIC_COORDINATES
      &INTERATOMIC_DISTANCES LOW
      &END INTERATOMIC_DISTANCES
      &KINDS 
        POTENTIAL
      &END KINDS
      &TOPOLOGY_INFO
        PSF_INFO
      &END TOPOLOGY_INFO
    &END PRINT
  &END SUBSYS
  
  &PRINT
    &FORCES ON
    &END FORCES
  &END PRINT
  
&END FORCE_EVAL
