 # Version information for this restart file 
 # current date 2023-03-09 13:39:19.691
 # current working dir /home/ac127777/Documents/methylphosphate/cp2k_geom_opts/mp0mp0/frame1
 # Program compiled at                              Do 4. Aug 18:17:51 CEST 2022
 # Program compiled on                                           simtech-nbl-020
 # Program compiled for                                                    local
 # Source code revision number                                       git:d8d7100
 &GLOBAL
   PRINT_LEVEL  MEDIUM
   PROJECT_NAME mp0mp0_opt
   RUN_TYPE  GEO_OPT
 &END GLOBAL
 &MOTION
   &GEO_OPT
     OPTIMIZER  LBFGS
     MAX_DR     3.0000000000000001E-03
     MAX_FORCE     4.4999999999999999E-04
     RMS_DR     1.5000000000000000E-03
     RMS_FORCE     2.9999999999999997E-04
     STEP_START_VAL  73
   &END GEO_OPT
   &CONSTRAINT
     &FIXED_ATOMS
       COMPONENTS_TO_FIX  XYZ
       LIST  23..352
     &END FIXED_ATOMS
   &END CONSTRAINT
   &PRINT
     &FORCES  SILENT
       FILENAME geom_opt_forces
       UNIT N
       FORMAT  XMOL
     &END FORCES
     &RESTART  LOW
       ADD_LAST  NUMERIC
       FILENAME MOTION_RESTART
     &END RESTART
   &END PRINT
 &END MOTION
 &FORCE_EVAL
   METHOD  QS
   &DFT
     BASIS_SET_FILE_NAME ../BASIS_MOLOPT_UZH
     POTENTIAL_FILE_NAME ../POTENTIAL_UZH
     CHARGE  0
     &SCF
       MAX_SCF  300
       EPS_SCF     1.0000000000000001E-05
       SCF_GUESS  ATOMIC
       &OT  T
         MINIMIZER  CG
       &END OT
       &MIXING  T
         ALPHA     4.0000000000000002E-01
       &END MIXING
       &PRINT
         &RESTART  LOW
           ADD_LAST  NUMERIC
           FILENAME SCF_RESTART
         &END RESTART
       &END PRINT
     &END SCF
     &QS
       EPS_DEFAULT     9.9999999999999998E-13
       METHOD  GPW
     &END QS
     &MGRID
       NGRIDS  5
       CUTOFF     5.5000000000000000E+02
       REL_CUTOFF     8.0000000000000000E+01
     &END MGRID
     &XC
       DENSITY_CUTOFF     1.0000000000000000E-10
       GRADIENT_CUTOFF     1.0000000000000000E-10
       TAU_CUTOFF     1.0000000000000000E-10
       &XC_FUNCTIONAL  NO_SHORTCUT
         &PBE  T
         &END PBE
       &END XC_FUNCTIONAL
       &VDW_POTENTIAL
         POTENTIAL_TYPE  PAIR_POTENTIAL
         &PAIR_POTENTIAL
           TYPE  DFTD3
           PARAMETER_FILE_NAME ../dftd3.dat
           REFERENCE_FUNCTIONAL PBE
           CALCULATE_C9_TERM  T
           REFERENCE_C9_TERM  T
         &END PAIR_POTENTIAL
       &END VDW_POTENTIAL
     &END XC
     &POISSON
       POISSON_SOLVER  PERIODIC
       PERIODIC  XYZ
     &END POISSON
   &END DFT
   &SUBSYS
     &CELL
       A     1.5999999999999998E+01    0.0000000000000000E+00    0.0000000000000000E+00
       B     0.0000000000000000E+00    1.5999999999999998E+01    0.0000000000000000E+00
       C     0.0000000000000000E+00    0.0000000000000000E+00    1.5999999999999998E+01
       PERIODIC  XYZ
       MULTIPLE_UNIT_CELL  1 1 1
       SYMMETRY  CUBIC
     &END CELL
     &COORD
CG331    9.7872541972438789E+00    5.6207078557034782E+00    6.3815035144954120E+00
OG303    9.1116078636598079E+00    6.8547676970022149E+00    5.9713167545855468E+00
PG0    9.7039457982862114E+00    8.2477730255236139E+00    6.5059207332995976E+00
OG311    8.4572744458915530E+00    9.2230399735320212E+00    6.4063078092484602E+00
OG311    1.0659002714982556E+01    8.7467600118080835E+00    5.3348460149198793E+00
OG2P1    1.0394274941722438E+01    8.1860058785673040E+00    7.8106305835580185E+00
HGA3    9.5004660980829883E+00    4.8470601490046059E+00    5.6608493824548596E+00
HGA3    9.4247520982647810E+00    5.3494425435599755E+00    7.3760773957414258E+00
HGA3    1.0877367625139662E+01    5.7426784677044740E+00    6.3722541111548665E+00
HGP1    7.8704749098102784E+00    9.1537072617033104E+00    7.2112421392653561E+00
HGP1    1.0232717935036442E+01    8.6451445973106509E+00    4.4234713304977458E+00
CG331    6.1160245244983269E+00    1.0297045865800367E+01    9.0829066484003995E+00
OG303    6.8186014157635260E+00    9.1093187299271534E+00    8.6046091164153680E+00
PG0    6.7713969113099415E+00    7.7282640574894019E+00    9.4541314142000452E+00
OG311    5.2609819376105831E+00    7.3997031428574171E+00    9.7355694789369327E+00
OG311    7.3944316077923924E+00    8.1099116413684786E+00    1.0868347637642797E+01
OG2P1    7.4660007037311091E+00    6.6875656899449183E+00    8.6797200792199902E+00
HGA3    6.7596739096452030E+00    1.1158746813198588E+01    8.8829271617163794E+00
HGA3    5.9297141564679787E+00    1.0227281263725477E+01    1.0162090381163193E+01
HGA3    5.1698042744272046E+00    1.0405645178186701E+01    8.5431722414620346E+00
HGP1    4.7571734161154806E+00    7.7368322091769706E+00    1.0545653445786810E+01
HGP1    8.3869738779147749E+00    8.3181942391214871E+00    1.0758684822891675E+01
OT    1.2599000000000002E+01    8.1929999999999996E+00    1.1837500000000002E+01
HT    1.2847000000000000E+01    9.1019999999999985E+00    1.1669499999999999E+01
HT    1.3269000000000002E+01    7.6749999999999989E+00    1.1391500000000001E+01
OT    3.7530000000000006E+00    5.6889999999999992E+00    7.5235000000000003E+00
HT    3.9850000000000003E+00    5.5709999999999997E+00    8.4444999999999997E+00
HT    4.1040000000000010E+00    6.5489999999999995E+00    7.2954999999999997E+00
OT    1.1566000000000001E+01    7.6429999999999998E+00    1.4461499999999999E+01
HT    1.2022000000000002E+01    7.7739999999999991E+00    1.3630500000000000E+01
HT    1.1523999999999999E+01    8.5159999999999982E+00    1.4852499999999999E+01
OT    1.6410000000000000E+00    6.2399999999999984E+00    9.6794999999999991E+00
HT    1.6820000000000002E+00    7.1919999999999984E+00    9.5875000000000004E+00
HT    7.0699999999999996E-01    6.0339999999999998E+00    9.6254999999999971E+00
OT    5.9569999999999999E+00    1.4602999999999998E+01    1.9394999999999998E+00
HT    5.3500000000000005E+00    1.3916999999999998E+01    1.6614999999999998E+00
HT    6.3460000000000010E+00    1.4923999999999999E+01    1.1264999999999996E+00
OT    1.2907999999999999E+01    4.3819999999999988E+00    2.4494999999999996E+00
HT    1.2272000000000002E+01    3.7319999999999993E+00    2.7474999999999996E+00
HT    1.2712999999999999E+01    5.1639999999999988E+00    2.9654999999999996E+00
OT    1.1834000000000000E+01    8.9709999999999983E+00    1.3384999999999998E+00
HT    1.1187999999999999E+01    8.8019999999999996E+00    2.0244999999999997E+00
HT    1.1317000000000002E+01    9.2639999999999993E+00    5.8849999999999980E-01
OT    6.8999999999999936E-02    1.5526000000000000E+01    7.7115000000000000E+00
HT    7.9999999999999429E-03    1.5590999999999999E+01    8.6645000000000003E+00
HT    9.6999999999999997E-01    1.5246999999999998E+01    7.5474999999999994E+00
OT    2.2770000000000001E+00    1.5179999999999998E+01    1.2021500000000001E+01
HT    3.0400000000000000E+00    1.5578000000000001E+01    1.1602500000000001E+01
HT    2.4640000000000000E+00    1.4241000000000001E+01    1.2018500000000001E+01
OT    8.9220000000000006E+00    1.2523999999999999E+01    9.3914999999999971E+00
HT    8.6760000000000002E+00    1.2119000000000000E+01    1.0222500000000002E+01
HT    9.7039999999999988E+00    1.2044999999999998E+01    9.1135000000000019E+00
OT    4.9580000000000002E+00    8.1119999999999983E+00    6.1154999999999999E+00
HT    4.0680000000000005E+00    8.3999999999999986E+00    6.3164999999999996E+00
HT    5.4739999999999993E+00    8.9180000000000010E+00    6.1025000000000000E+00
OT    3.8870000000000000E+00    1.5229999999999990E+00    7.4514999999999993E+00
HT    3.3670000000000000E+00    9.6399999999999897E-01    6.8754999999999997E+00
HT    4.1910000000000007E+00    2.2339999999999991E+00    6.8865000000000007E+00
OT    9.0890000000000022E+00    1.4569999999999999E+01    3.7194999999999996E+00
HT    9.4439999999999973E+00    1.3781999999999998E+01    4.1315000000000000E+00
HT    8.1850000000000005E+00    1.4341999999999999E+01    3.5055000000000001E+00
OT    7.1349999999999998E+00    7.3679999999999986E+00    1.4289500000000000E+01
HT    6.3389999999999995E+00    7.6339999999999986E+00    1.4749500000000001E+01
HT    6.8380000000000001E+00    6.7219999999999995E+00    1.3649500000000000E+01
OT    2.5260000000000002E+00    7.6799999999999902E-01    1.2565500000000000E+01
HT    3.0580000000000003E+00    7.6899999999999902E-01    1.1769499999999999E+01
HT    2.6379999999999999E+00    1.6459999999999990E+00    1.2929500000000001E+01
OT    2.9359999999999999E+00    6.7299999999999893E-01    4.5724999999999998E+00
HT    2.8690000000000002E+00    2.5699999999999895E-01    3.7125000000000004E+00
HT    2.4649999999999999E+00    1.5009999999999990E+00    4.4754999999999994E+00
OT    6.1640000000000006E+00    8.0219999999999985E+00    2.8954999999999997E+00
HT    5.6369999999999996E+00    7.7420000000000000E+00    3.6445000000000003E+00
HT    6.6710000000000003E+00    7.2459999999999987E+00    2.6555000000000000E+00
OT    4.3559999999999999E+00    1.2443999999999999E+01    1.3054999999999997E+00
HT    4.7240000000000002E+00    1.1759999999999998E+01    1.8644999999999998E+00
HT    4.2000000000000002E+00    1.2011000000000001E+01    4.6649999999999969E-01
OT    3.9380000000000002E+00    8.1819999999999986E+00    1.1841500000000002E+01
HT    2.9939999999999998E+00    8.3349999999999991E+00    1.1880500000000001E+01
HT    4.3270000000000000E+00    9.0399999999999991E+00    1.2010500000000002E+01
OT    8.1020000000000021E+00    1.6979999999999991E+00    1.1380500000000001E+01
HT    7.3810000000000002E+00    2.3269999999999986E+00    1.1377500000000000E+01
HT    8.8300000000000018E+00    2.1689999999999992E+00    1.1786500000000000E+01
OT    1.4536999999999999E+01    8.6179999999999986E+00    5.4615000000000000E+00
HT    1.3990000000000000E+01    9.3700000000000010E+00    5.6855000000000002E+00
HT    1.4511000000000001E+01    8.0609999999999982E+00    6.2395000000000005E+00
OT    1.4334000000000001E+01    1.4373999999999999E+01    1.4175500000000000E+01
HT    1.3979000000000001E+01    1.5260000000000000E+01    1.4251500000000000E+01
HT    1.4149000000000003E+01    1.3966999999999999E+01    1.5021500000000000E+01
OT    1.1793999999999999E+01    1.3155999999999999E+01    1.2823499999999999E+01
HT    1.1663000000000002E+01    1.4091999999999999E+01    1.2669499999999999E+01
HT    1.2377000000000001E+01    1.3116000000000000E+01    1.3581500000000000E+01
OT    1.2778000000000002E+01    6.7589999999999995E+00    3.9905000000000004E+00
HT    1.2132000000000001E+01    6.9449999999999985E+00    4.6724999999999994E+00
HT    1.3327000000000000E+01    7.5419999999999998E+00    3.9605000000000001E+00
OT    5.5960000000000001E+00    1.0748000000000001E+01    2.9805000000000001E+00
HT    5.5790000000000006E+00    1.0868999999999998E+01    3.9295000000000000E+00
HT    5.8360000000000003E+00    9.8289999999999988E+00    2.8604999999999996E+00
OT    1.2561000000000000E+01    1.4345000000000001E+01    3.7204999999999999E+00
HT    1.2527000000000003E+01    1.5292999999999999E+01    3.5955000000000004E+00
HT    1.3411000000000001E+01    1.4188000000000001E+01    4.1324999999999994E+00
OT    2.3170000000000002E+00    8.3239999999999981E+00    6.5424999999999995E+00
HT    1.9960000000000002E+00    7.4799999999999986E+00    6.2235000000000005E+00
HT    2.1739999999999999E+00    8.2939999999999987E+00    7.4884999999999993E+00
OT    4.6389999999999993E+00    1.0068000000000000E+01    1.5556500000000002E+01
HT    4.4889999999999999E+00    9.1329999999999991E+00    1.5694500000000001E+01
HT    3.8670000000000000E+00    1.0493000000000000E+01    1.5931500000000002E+01
OT    1.1174000000000001E+01    2.5349999999999988E+00    3.4835000000000003E+00
HT    1.1874000000000002E+01    2.0479999999999992E+00    3.9175000000000000E+00
HT    1.0414000000000000E+01    2.4219999999999988E+00    4.0545000000000000E+00
OT    1.5016000000000002E+01    4.3399999999999990E+00    4.0754999999999999E+00
HT    1.4484999999999999E+01    4.6729999999999992E+00    3.3514999999999997E+00
HT    1.5650000000000002E+01    5.0359999999999996E+00    4.2464999999999993E+00
OT    1.0001000000000001E+01    8.3409999999999993E+00    1.0569500000000001E+01
HT    1.0626999999999999E+01    8.8319999999999990E+00    1.1101500000000001E+01
HT    1.0352000000000002E+01    8.3889999999999993E+00    9.6805000000000003E+00
OT    6.9009999999999998E+00    4.0669999999999984E+00    1.4651500000000000E+01
HT    6.1560000000000006E+00    4.3939999999999992E+00    1.5155500000000000E+01
HT    7.6690000000000005E+00    4.3499999999999996E+00    1.5147499999999999E+01
OT    7.4690000000000003E+00    3.8079999999999994E+00    8.1645000000000003E+00
HT    7.1109999999999998E+00    3.6819999999999991E+00    7.2854999999999999E+00
HT    7.0810000000000004E+00    4.6299999999999999E+00    8.4655000000000005E+00
OT    4.6339999999999995E+00    3.3059999999999987E+00    5.5425000000000004E+00
HT    4.8830000000000009E+00    4.2189999999999985E+00    5.6835000000000004E+00
HT    5.2290000000000001E+00    2.9969999999999994E+00    4.8595000000000006E+00
OT    1.3257000000000001E+01    3.7649999999999992E+00    6.1225000000000005E+00
HT    1.3138000000000000E+01    2.8599999999999990E+00    5.8334999999999999E+00
HT    1.3975999999999999E+01    4.0959999999999992E+00    5.5834999999999999E+00
OT    2.2020000000000000E+00    1.3718999999999999E+01    4.6549999999999969E-01
HT    1.8490000000000002E+00    1.2904000000000000E+01    1.0749999999999973E-01
HT    2.8870000000000000E+00    1.3437999999999999E+01    1.0725000000000000E+00
OT    1.3125000000000004E+01    1.0776999999999999E+01    1.1542500000000002E+01
HT    1.2627000000000001E+01    1.1337999999999999E+01    1.2136500000000000E+01
HT    1.3927000000000001E+01    1.1267000000000001E+01    1.1363500000000000E+01
OT    1.5501999999999999E+01    6.7740000000000000E+00    7.4594999999999994E+00
HT    1.5692000000000000E+01    6.2389999999999999E+00    6.6895000000000007E+00
HT    1.5519000000000000E+01    6.1569999999999991E+00    8.1914999999999996E+00
OT    8.1100000000000012E+00    1.2584999999999999E+01    6.7244999999999999E+00
HT    8.1720000000000006E+00    1.2491000000000000E+01    7.6745000000000010E+00
HT    9.0150000000000006E+00    1.2700999999999999E+01    6.4345000000000008E+00
OT    7.4850000000000003E+00    1.5557999999999998E+01    7.1094999999999997E+00
HT    7.5600000000000005E+00    1.4725000000000001E+01    6.6434999999999995E+00
HT    8.3010000000000002E+00    1.5630000000000001E+01    7.6045000000000007E+00
OT    1.4419000000000002E+01    8.2229999999999990E+00    7.8449999999999986E-01
HT    1.4301000000000000E+01    7.2729999999999997E+00    7.5049999999999972E-01
HT    1.3557000000000002E+01    8.5640000000000001E+00    1.0204999999999997E+00
OT    2.8950000000000000E+00    1.1477999999999998E+01    9.5534999999999979E+00
HT    2.0230000000000001E+00    1.1709000000000001E+01    9.2344999999999988E+00
HT    3.0860000000000003E+00    1.2132999999999999E+01    1.0224499999999999E+01
OT    6.8099999999999996E+00    8.4799999999999898E-01    7.8414999999999999E+00
HT    7.1430000000000007E+00    1.1649999999999989E+00    8.6815000000000015E+00
HT    5.8579999999999997E+00    8.6199999999999899E-01    7.9395000000000007E+00
OT    4.6610000000000005E+00    1.0791999999999998E+01    1.2802499999999998E+01
HT    4.4720000000000004E+00    1.0525999999999998E+01    1.3701499999999998E+01
HT    5.2750000000000004E+00    1.1520999999999999E+01    1.2891499999999999E+01
OT    8.3420000000000005E+00    1.0665999999999999E+01    2.0644999999999998E+00
HT    7.8250000000000002E+00    1.0983999999999998E+01    2.8044999999999995E+00
HT    7.7949999999999999E+00    1.0836000000000000E+01    1.2985000000000000E+00
OT    1.7170000000000001E+00    5.7869999999999999E+00    5.7254999999999994E+00
HT    2.4060000000000001E+00    5.8159999999999998E+00    6.3884999999999996E+00
HT    2.1840000000000002E+00    5.8259999999999996E+00    4.8914999999999997E+00
OT    9.6989999999999981E+00    1.4517000000000001E+01    1.5310500000000001E+01
HT    9.9019999999999992E+00    1.4303000000000001E+01    1.4399500000000002E+01
HT    1.0476000000000001E+01    1.4246000000000000E+01    1.5799500000000002E+01
OT    1.4293000000000001E+01    9.7099999999999898E-01    8.1225000000000005E+00
HT    1.3413000000000000E+01    6.2299999999999889E-01    7.9764999999999997E+00
HT    1.4221000000000002E+01    1.4709999999999990E+00    8.9354999999999976E+00
OT    1.4692000000000000E+01    1.2964999999999998E+01    6.2645000000000000E+00
HT    1.5273000000000000E+01    1.2646999999999998E+01    5.5735000000000001E+00
HT    1.5279999999999999E+01    1.3213999999999999E+01    6.9775000000000009E+00
OT    8.5540000000000003E+00    6.2649999999999997E+00    2.0044999999999997E+00
HT    8.7309999999999999E+00    5.3859999999999992E+00    2.3394999999999997E+00
HT    8.7069999999999990E+00    6.1989999999999990E+00    1.0624999999999998E+00
OT    9.3800000000000006E-01    1.1251000000000001E+01    1.4666499999999999E+01
HT    8.3199999999999985E-01    1.0374999999999998E+01    1.5036500000000002E+01
HT    1.5460000000000000E+00    1.1690000000000000E+01    1.5262500000000001E+01
OT    1.4977000000000002E+01    1.2343000000000000E+01    1.0499499999999999E+01
HT    1.5390000000000001E+01    1.1611000000000001E+01    1.0041499999999997E+01
HT    1.5653000000000000E+01    1.2665000000000001E+01    1.1096500000000001E+01
OT    9.2599999999999998E+00    1.0101999999999999E+01    1.4035500000000001E+01
HT    9.3969999999999985E+00    9.1620000000000008E+00    1.3916499999999999E+01
HT    8.4119999999999990E+00    1.0166999999999998E+01    1.4474500000000001E+01
OT    1.6650000000000000E+00    3.0389999999999993E+00    4.2885000000000000E+00
HT    2.1690000000000000E+00    3.8529999999999989E+00    4.3045000000000000E+00
HT    1.0119999999999998E+00    3.1479999999999992E+00    4.9804999999999993E+00
OT    6.7600000000000005E-01    6.7499999999999893E-01    9.9275000000000002E+00
HT    9.8299999999999998E-01    1.5039999999999991E+00    1.0294500000000001E+01
HT   -3.5000000000000059E-02    9.2299999999999904E-01    9.3354999999999979E+00
OT    4.4550000000000001E+00    1.3427999999999999E+01    6.4174999999999995E+00
HT    4.2770000000000001E+00    1.4056999999999999E+01    7.1164999999999994E+00
HT    3.8220000000000001E+00    1.3645000000000000E+01    5.7325000000000008E+00
OT    5.9120000000000008E+00    4.4150000000000000E+00    2.6044999999999998E+00
HT    6.7790000000000008E+00    4.8139999999999992E+00    2.6814999999999998E+00
HT    6.0840000000000005E+00    3.4749999999999988E+00    2.5534999999999997E+00
OT    1.3166000000000000E+01    1.2769999999999990E+00    5.0114999999999998E+00
HT    1.2756000000000000E+01    6.9599999999999906E-01    5.6525000000000007E+00
HT    1.3813000000000001E+01    7.2699999999999898E-01    4.5694999999999997E+00
OT    1.2990000000000000E+01    1.0973999999999998E+01    3.8734999999999999E+00
HT    1.2115999999999998E+01    1.0763000000000000E+01    3.5454999999999997E+00
HT    1.3433000000000000E+01    1.1382999999999999E+01    3.1304999999999996E+00
OT    6.3770000000000007E+00    1.2882000000000000E+01    1.2963499999999998E+01
HT    7.2900000000000009E+00    1.2856999999999999E+01    1.2676499999999999E+01
HT    6.3190000000000008E+00    1.3665000000000001E+01    1.3510500000000000E+01
OT    9.6610000000000014E+00    8.4019999999999992E+00    2.8625000000000003E+00
HT    9.1490000000000009E+00    7.5999999999999988E+00    2.7595000000000001E+00
HT    9.1250000000000018E+00    9.0819999999999990E+00    2.4545000000000003E+00
OT    1.2943000000000003E+01    1.5183999999999999E+01    7.3274999999999997E+00
HT    1.3381000000000000E+01    1.4490000000000000E+01    6.8345000000000002E+00
HT    1.2902000000000001E+01    1.4851999999999999E+01    8.2244999999999990E+00
OT    2.0529999999999999E+00    1.0972999999999999E+01    5.8854999999999995E+00
HT    2.2869999999999995E+00    1.0067000000000000E+01    5.6844999999999999E+00
HT    2.7570000000000001E+00    1.1282000000000000E+01    6.4555000000000007E+00
OT    1.1695000000000002E+01    5.6789999999999985E+00    9.3725000000000023E+00
HT    1.2177000000000000E+01    4.9589999999999987E+00    9.7795000000000023E+00
HT    1.2353999999999999E+01    6.3590000000000000E+00    9.2304999999999975E+00
OT    1.2951000000000002E+01    1.0728999999999999E+01    6.9805000000000001E+00
HT    1.3414999999999999E+01    1.1554000000000000E+01    7.1224999999999996E+00
HT    1.3032000000000002E+01    1.0566000000000001E+01    6.0404999999999998E+00
OT    2.2699999999999995E-01    2.3259999999999987E+00    1.9934999999999996E+00
HT    5.3499999999999992E-01    2.4189999999999992E+00    1.0914999999999997E+00
HT    1.0270000000000001E+00    2.2519999999999989E+00    2.5134999999999996E+00
OT    9.1579999999999977E+00    1.2225000000000001E+01    1.2112499999999999E+01
HT    1.0022000000000002E+01    1.2600000000000000E+01    1.2282499999999999E+01
HT    9.1340000000000021E+00    1.1428000000000001E+01    1.2642500000000000E+01
OT    1.1070000000000002E+00    5.6099999999999994E+00    1.3704500000000001E+01
HT    1.1900000000000002E+00    6.5439999999999987E+00    1.3514500000000002E+01
HT    5.6900000000000006E-01    5.2659999999999991E+00    1.2991500000000002E+01
OT    2.5200000000000000E+00    7.1919999999999984E+00    1.1134999999999999E+00
HT    1.8699999999999999E+00    7.6239999999999997E+00    5.5949999999999966E-01
HT    3.3620000000000001E+00    7.4279999999999990E+00    7.2449999999999970E-01
OT    1.1177000000000000E+01    1.1080000000000000E+01    9.2865000000000020E+00
HT    1.1666000000000000E+01    1.0882000000000001E+01    8.4884999999999984E+00
HT    1.1749000000000002E+01    1.0787999999999998E+01    9.9975000000000023E+00
OT    1.2905999999999997E+01    1.3909999999999998E+01    9.7585000000000015E+00
HT    1.3520999999999999E+01    1.3390999999999998E+01    1.0277500000000000E+01
HT    1.2044000000000002E+01    1.3666999999999998E+01    1.0096500000000001E+01
OT    3.1710000000000003E+00    5.5869999999999997E+00    3.2724999999999995E+00
HT    3.1870000000000003E+00    6.2340000000000000E+00    2.5675000000000003E+00
HT    4.0369999999999999E+00    5.1799999999999988E+00    3.2454999999999998E+00
OT    5.1849999999999996E+00    2.4799999999999991E+00    1.3235500000000000E+01
HT    5.8360000000000003E+00    2.7139999999999991E+00    1.3896500000000000E+01
HT    4.4230000000000009E+00    3.0199999999999987E+00    1.3446500000000002E+01
OT    1.4449000000000000E+01    4.6519999999999984E+00    1.2323500000000001E+01
HT    1.4570000000000004E+01    3.8749999999999987E+00    1.2868500000000001E+01
HT    1.4163000000000000E+01    5.3319999999999999E+00    1.2934500000000002E+01
OT    1.3499999999999995E-01    7.3119999999999994E+00    3.2684999999999995E+00
HT    9.1200000000000003E-01    6.8789999999999996E+00    3.6204999999999998E+00
HT    1.8699999999999994E-01    7.1699999999999999E+00    2.3234999999999997E+00
OT    1.6719999999999999E+00    1.1991999999999999E+01    1.2186500000000001E+01
HT    1.5599999999999998E+00    1.2081999999999999E+01    1.3132500000000002E+01
HT    2.5970000000000000E+00    1.1773999999999999E+01    1.2073500000000001E+01
OT    1.3802999999999999E+01    1.4299999999999990E+00    8.0249999999999966E-01
HT    1.4431000000000001E+01    1.7989999999999993E+00    1.4244999999999997E+00
HT    1.3507000000000001E+01    2.1809999999999992E+00    2.8749999999999976E-01
OT    1.2215000000000000E+01    2.0209999999999986E+00    1.3237499999999999E+01
HT    1.2689000000000002E+01    2.5819999999999990E+00    1.3851500000000000E+01
HT    1.2804000000000000E+01    1.2809999999999990E+00    1.3085500000000000E+01
OT    1.5988000000000001E+01    9.5239999999999991E+00    3.2284999999999995E+00
HT    1.5360000000000003E+01    9.2519999999999989E+00    3.8985000000000003E+00
HT    1.5516000000000002E+01    9.4209999999999994E+00    2.4014999999999995E+00
OT    9.6829999999999981E+00    1.5037999999999998E+01    1.0334500000000000E+01
HT    9.9060000000000006E+00    1.5651999999999999E+01    9.6344999999999992E+00
HT    9.2669999999999977E+00    1.4303000000000001E+01    9.8855000000000004E+00
OT    6.9000000000000004E+00    5.1679999999999993E+00    1.1925500000000001E+01
HT    7.7169999999999996E+00    5.3469999999999986E+00    1.1460500000000001E+01
HT    7.1650000000000009E+00    4.6549999999999985E+00    1.2688499999999998E+01
OT    1.5081000000000001E+01    1.5498000000000001E+01    1.1455500000000001E+01
HT    1.4872000000000002E+01    1.5264000000000001E+01    1.2359500000000001E+01
HT    1.6035000000000000E+01    1.5441000000000001E+01    1.1407500000000001E+01
OT    9.2900000000000005E-01    3.4499999999999988E+00    1.0390499999999999E+01
HT    1.5049999999999999E+00    4.2119999999999997E+00    1.0450500000000000E+01
HT    1.4899999999999994E-01    3.6989999999999994E+00    1.0886500000000000E+01
OT    2.5190000000000001E+00    3.5969999999999986E+00    7.6849999999999985E-01
HT    3.0940000000000003E+00    3.9069999999999991E+00    6.8499999999999714E-02
HT    2.6739999999999999E+00    4.2029999999999994E+00    1.4924999999999997E+00
OT    6.6160000000000005E+00    1.6899999999999991E+00    4.0549999999999975E-01
HT    7.1349999999999998E+00    9.0099999999999902E-01    2.4549999999999975E-01
HT    6.0710000000000006E+00    1.4679999999999991E+00    1.1604999999999996E+00
OT    6.0640000000000001E+00    1.0988000000000000E+01    5.7304999999999993E+00
HT    6.9930000000000003E+00    1.1113999999999999E+01    5.9215000000000000E+00
HT    5.6590000000000007E+00    1.1828000000000001E+01    5.9424999999999999E+00
OT    1.1155999999999999E+01    3.4249999999999994E+00    7.8525000000000000E+00
HT    1.0945000000000002E+01    4.2439999999999989E+00    8.3014999999999990E+00
HT    1.1760000000000002E+01    3.6819999999999991E+00    7.1555000000000000E+00
OT    5.4499999999999993E+00    1.5026000000000000E+01    8.7135000000000016E+00
HT    6.1200000000000010E+00    1.5090999999999999E+01    8.0335000000000001E+00
HT    5.8730000000000002E+00    1.5370000000000001E+01    9.5004999999999988E+00
OT    1.5100000000000001E+01    5.3369999999999997E+00    9.7824999999999971E+00
HT    1.4681000000000001E+01    4.8919999999999986E+00    1.0518500000000000E+01
HT    1.5604000000000001E+01    6.0439999999999996E+00    1.0183500000000002E+01
OT    6.5649999999999995E+00    1.4909999999999990E+00    3.8785000000000003E+00
HT    6.1259999999999994E+00    9.0999999999999903E-01    4.4984999999999999E+00
HT    7.1839999999999993E+00    9.2499999999999905E-01    3.4154999999999998E+00
OT    1.2312999999999999E+01    1.2979000000000001E+01    1.3444999999999998E+00
HT    1.1446999999999999E+01    1.2645000000000001E+01    1.1104999999999996E+00
HT    1.2139999999999999E+01    1.3655999999999999E+01    1.9984999999999997E+00
OT    4.7710000000000008E+00    4.0549999999999997E+00    1.0538499999999999E+01
HT    5.4680000000000009E+00    4.4599999999999991E+00    1.1055499999999999E+01
HT    3.9780000000000002E+00    4.5259999999999998E+00    1.0794500000000001E+01
OT    6.3540000000000010E+00    5.7749999999999986E+00    5.5635000000000003E+00
HT    5.9359999999999999E+00    6.5779999999999985E+00    5.8724999999999996E+00
HT    7.2860000000000005E+00    5.9059999999999997E+00    5.7394999999999996E+00
OT    1.0118000000000002E+01    1.4409999999999989E+00    9.2085000000000008E+00
HT    1.0424000000000001E+01    2.1059999999999994E+00    8.5914999999999999E+00
HT    9.8529999999999998E+00    1.9369999999999989E+00    9.9824999999999999E+00
OT    4.1900000000000004E+00    1.3929999999999989E+00    1.0144500000000001E+01
HT    4.0019999999999998E+00    1.3649999999999991E+00    9.2065000000000019E+00
HT    4.4280000000000008E+00    2.3049999999999988E+00    1.0313499999999999E+01
OT    1.3543000000000001E+01    1.7599999999999993E+00    1.0546499999999998E+01
HT    1.3241000000000001E+01    2.5039999999999987E+00    1.1067499999999999E+01
HT    1.4278000000000002E+01    1.4019999999999990E+00    1.1043500000000000E+01
OT    8.8340000000000014E+00    3.5659999999999989E+00    2.1024999999999996E+00
HT    9.7420000000000009E+00    3.5049999999999994E+00    1.8074999999999999E+00
HT    8.5890000000000022E+00    2.6649999999999987E+00    2.3125000000000000E+00
OT    9.0999999999999992E-01    8.2909999999999986E+00    1.2777500000000002E+01
HT    7.7900000000000003E-01    8.7229999999999990E+00    1.3621499999999999E+01
HT    2.1799999999999994E-01    8.6439999999999984E+00    1.2218500000000001E+01
OT    1.5481999999999999E+01    8.1399999999999988E+00    1.3486500000000001E+01
HT    1.4589000000000002E+01    8.0499999999999989E+00    1.3819500000000000E+01
HT    1.6027000000000001E+01    8.1829999999999981E+00    1.4271500000000000E+01
OT    9.2999999999999989E+00    1.8959999999999990E+00    5.7565000000000008E+00
HT    8.4439999999999991E+00    1.5029999999999990E+00    5.9314999999999998E+00
HT    9.5930000000000017E+00    2.2209999999999992E+00    6.6074999999999999E+00
OT    1.3417000000000000E+01    8.1869999999999994E+00    8.9924999999999979E+00
HT    1.4257000000000001E+01    8.0229999999999979E+00    8.5635000000000012E+00
HT    1.3231000000000000E+01    9.1079999999999988E+00    8.8115000000000023E+00
OT    4.1900000000000004E+00    5.5669999999999984E+00    1.3007500000000002E+01
HT    4.9509999999999996E+00    5.4329999999999998E+00    1.2442499999999999E+01
HT    3.7989999999999999E+00    6.3829999999999991E+00    1.2692499999999999E+01
OT    9.8510000000000009E+00    5.5969999999999995E+00    1.1551499999999999E+01
HT    1.0520000000000001E+01    5.8029999999999999E+00    1.0898500000000000E+01
HT    9.2439999999999998E+00    6.3359999999999985E+00    1.1513500000000001E+01
OT    2.0049999999999999E+00    8.9219999999999988E+00    9.4905000000000008E+00